*SPEF "ieee 1481-1999"
*DESIGN "openframe_project_wrapper"
*DATE "04:57:44 Monday February 09, 2026"
*VENDOR "The OpenROAD Project"
*PROGRAM "OpenROAD"
*VERSION "edf00dff99f6c40d67a30c0e22a8191c5d2ed9d6"
*DESIGN_FLOW "NAME_SCOPE LOCAL" "PIN_CAP NONE"
*DIVIDER /
*DELIMITER :
*BUS_DELIMITER []
*T_UNIT 1 NS
*C_UNIT 1 PF
*R_UNIT 1 OHM
*L_UNIT 1 HENRY

*NAME_MAP
*1 analog_io[0]
*2 analog_io[10]
*3 analog_io[11]
*4 analog_io[12]
*5 analog_io[13]
*6 analog_io[14]
*7 analog_io[15]
*8 analog_io[16]
*9 analog_io[17]
*10 analog_io[18]
*11 analog_io[19]
*12 analog_io[1]
*13 analog_io[20]
*14 analog_io[21]
*15 analog_io[22]
*16 analog_io[23]
*17 analog_io[24]
*18 analog_io[25]
*19 analog_io[26]
*20 analog_io[27]
*21 analog_io[28]
*22 analog_io[29]
*23 analog_io[2]
*24 analog_io[30]
*25 analog_io[31]
*26 analog_io[32]
*27 analog_io[33]
*28 analog_io[34]
*29 analog_io[35]
*30 analog_io[36]
*31 analog_io[37]
*32 analog_io[38]
*33 analog_io[39]
*34 analog_io[3]
*35 analog_io[40]
*36 analog_io[41]
*37 analog_io[42]
*38 analog_io[43]
*39 analog_io[4]
*40 analog_io[5]
*41 analog_io[6]
*42 analog_io[7]
*43 analog_io[8]
*44 analog_io[9]
*45 analog_noesd_io[0]
*46 analog_noesd_io[10]
*47 analog_noesd_io[11]
*48 analog_noesd_io[12]
*49 analog_noesd_io[13]
*50 analog_noesd_io[14]
*51 analog_noesd_io[15]
*52 analog_noesd_io[16]
*53 analog_noesd_io[17]
*54 analog_noesd_io[18]
*55 analog_noesd_io[19]
*56 analog_noesd_io[1]
*57 analog_noesd_io[20]
*58 analog_noesd_io[21]
*59 analog_noesd_io[22]
*60 analog_noesd_io[23]
*61 analog_noesd_io[24]
*62 analog_noesd_io[25]
*63 analog_noesd_io[26]
*64 analog_noesd_io[27]
*65 analog_noesd_io[28]
*66 analog_noesd_io[29]
*67 analog_noesd_io[2]
*68 analog_noesd_io[30]
*69 analog_noesd_io[31]
*70 analog_noesd_io[32]
*71 analog_noesd_io[33]
*72 analog_noesd_io[34]
*73 analog_noesd_io[35]
*74 analog_noesd_io[36]
*75 analog_noesd_io[37]
*76 analog_noesd_io[38]
*77 analog_noesd_io[39]
*78 analog_noesd_io[3]
*79 analog_noesd_io[40]
*80 analog_noesd_io[41]
*81 analog_noesd_io[42]
*82 analog_noesd_io[43]
*83 analog_noesd_io[4]
*84 analog_noesd_io[5]
*85 analog_noesd_io[6]
*86 analog_noesd_io[7]
*87 analog_noesd_io[8]
*88 analog_noesd_io[9]
*89 gpio_analog_en[0]
*90 gpio_analog_en[10]
*91 gpio_analog_en[11]
*92 gpio_analog_en[12]
*93 gpio_analog_en[13]
*94 gpio_analog_en[14]
*95 gpio_analog_en[15]
*96 gpio_analog_en[16]
*97 gpio_analog_en[17]
*98 gpio_analog_en[18]
*99 gpio_analog_en[19]
*100 gpio_analog_en[1]
*101 gpio_analog_en[20]
*102 gpio_analog_en[21]
*103 gpio_analog_en[22]
*104 gpio_analog_en[23]
*105 gpio_analog_en[24]
*106 gpio_analog_en[25]
*107 gpio_analog_en[26]
*108 gpio_analog_en[27]
*109 gpio_analog_en[28]
*110 gpio_analog_en[29]
*111 gpio_analog_en[2]
*112 gpio_analog_en[30]
*113 gpio_analog_en[31]
*114 gpio_analog_en[32]
*115 gpio_analog_en[33]
*116 gpio_analog_en[34]
*117 gpio_analog_en[35]
*118 gpio_analog_en[36]
*119 gpio_analog_en[37]
*120 gpio_analog_en[38]
*121 gpio_analog_en[39]
*122 gpio_analog_en[3]
*123 gpio_analog_en[40]
*124 gpio_analog_en[41]
*125 gpio_analog_en[42]
*126 gpio_analog_en[43]
*127 gpio_analog_en[4]
*128 gpio_analog_en[5]
*129 gpio_analog_en[6]
*130 gpio_analog_en[7]
*131 gpio_analog_en[8]
*132 gpio_analog_en[9]
*133 gpio_analog_pol[0]
*134 gpio_analog_pol[10]
*135 gpio_analog_pol[11]
*136 gpio_analog_pol[12]
*137 gpio_analog_pol[13]
*138 gpio_analog_pol[14]
*139 gpio_analog_pol[15]
*140 gpio_analog_pol[16]
*141 gpio_analog_pol[17]
*142 gpio_analog_pol[18]
*143 gpio_analog_pol[19]
*144 gpio_analog_pol[1]
*145 gpio_analog_pol[20]
*146 gpio_analog_pol[21]
*147 gpio_analog_pol[22]
*148 gpio_analog_pol[23]
*149 gpio_analog_pol[24]
*150 gpio_analog_pol[25]
*151 gpio_analog_pol[26]
*152 gpio_analog_pol[27]
*153 gpio_analog_pol[28]
*154 gpio_analog_pol[29]
*155 gpio_analog_pol[2]
*156 gpio_analog_pol[30]
*157 gpio_analog_pol[31]
*158 gpio_analog_pol[32]
*159 gpio_analog_pol[33]
*160 gpio_analog_pol[34]
*161 gpio_analog_pol[35]
*162 gpio_analog_pol[36]
*163 gpio_analog_pol[37]
*164 gpio_analog_pol[38]
*165 gpio_analog_pol[39]
*166 gpio_analog_pol[3]
*167 gpio_analog_pol[40]
*168 gpio_analog_pol[41]
*169 gpio_analog_pol[42]
*170 gpio_analog_pol[43]
*171 gpio_analog_pol[4]
*172 gpio_analog_pol[5]
*173 gpio_analog_pol[6]
*174 gpio_analog_pol[7]
*175 gpio_analog_pol[8]
*176 gpio_analog_pol[9]
*177 gpio_analog_sel[0]
*178 gpio_analog_sel[10]
*179 gpio_analog_sel[11]
*180 gpio_analog_sel[12]
*181 gpio_analog_sel[13]
*182 gpio_analog_sel[14]
*183 gpio_analog_sel[15]
*184 gpio_analog_sel[16]
*185 gpio_analog_sel[17]
*186 gpio_analog_sel[18]
*187 gpio_analog_sel[19]
*188 gpio_analog_sel[1]
*189 gpio_analog_sel[20]
*190 gpio_analog_sel[21]
*191 gpio_analog_sel[22]
*192 gpio_analog_sel[23]
*193 gpio_analog_sel[24]
*194 gpio_analog_sel[25]
*195 gpio_analog_sel[26]
*196 gpio_analog_sel[27]
*197 gpio_analog_sel[28]
*198 gpio_analog_sel[29]
*199 gpio_analog_sel[2]
*200 gpio_analog_sel[30]
*201 gpio_analog_sel[31]
*202 gpio_analog_sel[32]
*203 gpio_analog_sel[33]
*204 gpio_analog_sel[34]
*205 gpio_analog_sel[35]
*206 gpio_analog_sel[36]
*207 gpio_analog_sel[37]
*208 gpio_analog_sel[38]
*209 gpio_analog_sel[39]
*210 gpio_analog_sel[3]
*211 gpio_analog_sel[40]
*212 gpio_analog_sel[41]
*213 gpio_analog_sel[42]
*214 gpio_analog_sel[43]
*215 gpio_analog_sel[4]
*216 gpio_analog_sel[5]
*217 gpio_analog_sel[6]
*218 gpio_analog_sel[7]
*219 gpio_analog_sel[8]
*220 gpio_analog_sel[9]
*221 gpio_dm0[0]
*222 gpio_dm0[10]
*223 gpio_dm0[11]
*224 gpio_dm0[12]
*225 gpio_dm0[13]
*226 gpio_dm0[14]
*227 gpio_dm0[15]
*228 gpio_dm0[16]
*229 gpio_dm0[17]
*230 gpio_dm0[18]
*231 gpio_dm0[19]
*232 gpio_dm0[1]
*233 gpio_dm0[20]
*234 gpio_dm0[21]
*235 gpio_dm0[22]
*236 gpio_dm0[23]
*237 gpio_dm0[24]
*238 gpio_dm0[25]
*239 gpio_dm0[26]
*240 gpio_dm0[27]
*241 gpio_dm0[28]
*242 gpio_dm0[29]
*243 gpio_dm0[2]
*244 gpio_dm0[30]
*245 gpio_dm0[31]
*246 gpio_dm0[32]
*247 gpio_dm0[33]
*248 gpio_dm0[34]
*249 gpio_dm0[35]
*250 gpio_dm0[36]
*251 gpio_dm0[37]
*252 gpio_dm0[38]
*253 gpio_dm0[39]
*254 gpio_dm0[3]
*255 gpio_dm0[40]
*256 gpio_dm0[41]
*257 gpio_dm0[42]
*258 gpio_dm0[43]
*259 gpio_dm0[4]
*260 gpio_dm0[5]
*261 gpio_dm0[6]
*262 gpio_dm0[7]
*263 gpio_dm0[8]
*264 gpio_dm0[9]
*265 gpio_dm1[0]
*266 gpio_dm1[10]
*267 gpio_dm1[11]
*268 gpio_dm1[12]
*269 gpio_dm1[13]
*270 gpio_dm1[14]
*271 gpio_dm1[15]
*272 gpio_dm1[16]
*273 gpio_dm1[17]
*274 gpio_dm1[18]
*275 gpio_dm1[19]
*276 gpio_dm1[1]
*277 gpio_dm1[20]
*278 gpio_dm1[21]
*279 gpio_dm1[22]
*280 gpio_dm1[23]
*281 gpio_dm1[24]
*282 gpio_dm1[25]
*283 gpio_dm1[26]
*284 gpio_dm1[27]
*285 gpio_dm1[28]
*286 gpio_dm1[29]
*287 gpio_dm1[2]
*288 gpio_dm1[30]
*289 gpio_dm1[31]
*290 gpio_dm1[32]
*291 gpio_dm1[33]
*292 gpio_dm1[34]
*293 gpio_dm1[35]
*294 gpio_dm1[36]
*295 gpio_dm1[37]
*296 gpio_dm1[38]
*297 gpio_dm1[39]
*298 gpio_dm1[3]
*299 gpio_dm1[40]
*300 gpio_dm1[41]
*301 gpio_dm1[42]
*302 gpio_dm1[43]
*303 gpio_dm1[4]
*304 gpio_dm1[5]
*305 gpio_dm1[6]
*306 gpio_dm1[7]
*307 gpio_dm1[8]
*308 gpio_dm1[9]
*309 gpio_dm2[0]
*310 gpio_dm2[10]
*311 gpio_dm2[11]
*312 gpio_dm2[12]
*313 gpio_dm2[13]
*314 gpio_dm2[14]
*315 gpio_dm2[15]
*316 gpio_dm2[16]
*317 gpio_dm2[17]
*318 gpio_dm2[18]
*319 gpio_dm2[19]
*320 gpio_dm2[1]
*321 gpio_dm2[20]
*322 gpio_dm2[21]
*323 gpio_dm2[22]
*324 gpio_dm2[23]
*325 gpio_dm2[24]
*326 gpio_dm2[25]
*327 gpio_dm2[26]
*328 gpio_dm2[27]
*329 gpio_dm2[28]
*330 gpio_dm2[29]
*331 gpio_dm2[2]
*332 gpio_dm2[30]
*333 gpio_dm2[31]
*334 gpio_dm2[32]
*335 gpio_dm2[33]
*336 gpio_dm2[34]
*337 gpio_dm2[35]
*338 gpio_dm2[36]
*339 gpio_dm2[37]
*340 gpio_dm2[38]
*341 gpio_dm2[39]
*342 gpio_dm2[3]
*343 gpio_dm2[40]
*344 gpio_dm2[41]
*345 gpio_dm2[42]
*346 gpio_dm2[43]
*347 gpio_dm2[4]
*348 gpio_dm2[5]
*349 gpio_dm2[6]
*350 gpio_dm2[7]
*351 gpio_dm2[8]
*352 gpio_dm2[9]
*353 gpio_holdover[0]
*354 gpio_holdover[10]
*355 gpio_holdover[11]
*356 gpio_holdover[12]
*357 gpio_holdover[13]
*358 gpio_holdover[14]
*359 gpio_holdover[15]
*360 gpio_holdover[16]
*361 gpio_holdover[17]
*362 gpio_holdover[18]
*363 gpio_holdover[19]
*364 gpio_holdover[1]
*365 gpio_holdover[20]
*366 gpio_holdover[21]
*367 gpio_holdover[22]
*368 gpio_holdover[23]
*369 gpio_holdover[24]
*370 gpio_holdover[25]
*371 gpio_holdover[26]
*372 gpio_holdover[27]
*373 gpio_holdover[28]
*374 gpio_holdover[29]
*375 gpio_holdover[2]
*376 gpio_holdover[30]
*377 gpio_holdover[31]
*378 gpio_holdover[32]
*379 gpio_holdover[33]
*380 gpio_holdover[34]
*381 gpio_holdover[35]
*382 gpio_holdover[36]
*383 gpio_holdover[37]
*384 gpio_holdover[38]
*385 gpio_holdover[39]
*386 gpio_holdover[3]
*387 gpio_holdover[40]
*388 gpio_holdover[41]
*389 gpio_holdover[42]
*390 gpio_holdover[43]
*391 gpio_holdover[4]
*392 gpio_holdover[5]
*393 gpio_holdover[6]
*394 gpio_holdover[7]
*395 gpio_holdover[8]
*396 gpio_holdover[9]
*397 gpio_ib_mode_sel[0]
*398 gpio_ib_mode_sel[10]
*399 gpio_ib_mode_sel[11]
*400 gpio_ib_mode_sel[12]
*401 gpio_ib_mode_sel[13]
*402 gpio_ib_mode_sel[14]
*403 gpio_ib_mode_sel[15]
*404 gpio_ib_mode_sel[16]
*405 gpio_ib_mode_sel[17]
*406 gpio_ib_mode_sel[18]
*407 gpio_ib_mode_sel[19]
*408 gpio_ib_mode_sel[1]
*409 gpio_ib_mode_sel[20]
*410 gpio_ib_mode_sel[21]
*411 gpio_ib_mode_sel[22]
*412 gpio_ib_mode_sel[23]
*413 gpio_ib_mode_sel[24]
*414 gpio_ib_mode_sel[25]
*415 gpio_ib_mode_sel[26]
*416 gpio_ib_mode_sel[27]
*417 gpio_ib_mode_sel[28]
*418 gpio_ib_mode_sel[29]
*419 gpio_ib_mode_sel[2]
*420 gpio_ib_mode_sel[30]
*421 gpio_ib_mode_sel[31]
*422 gpio_ib_mode_sel[32]
*423 gpio_ib_mode_sel[33]
*424 gpio_ib_mode_sel[34]
*425 gpio_ib_mode_sel[35]
*426 gpio_ib_mode_sel[36]
*427 gpio_ib_mode_sel[37]
*428 gpio_ib_mode_sel[38]
*429 gpio_ib_mode_sel[39]
*430 gpio_ib_mode_sel[3]
*431 gpio_ib_mode_sel[40]
*432 gpio_ib_mode_sel[41]
*433 gpio_ib_mode_sel[42]
*434 gpio_ib_mode_sel[43]
*435 gpio_ib_mode_sel[4]
*436 gpio_ib_mode_sel[5]
*437 gpio_ib_mode_sel[6]
*438 gpio_ib_mode_sel[7]
*439 gpio_ib_mode_sel[8]
*440 gpio_ib_mode_sel[9]
*441 gpio_in[0]
*442 gpio_in[10]
*443 gpio_in[11]
*444 gpio_in[12]
*445 gpio_in[13]
*446 gpio_in[14]
*447 gpio_in[15]
*448 gpio_in[16]
*449 gpio_in[17]
*450 gpio_in[18]
*451 gpio_in[19]
*452 gpio_in[1]
*453 gpio_in[20]
*454 gpio_in[21]
*455 gpio_in[22]
*456 gpio_in[23]
*457 gpio_in[24]
*458 gpio_in[25]
*459 gpio_in[26]
*460 gpio_in[27]
*461 gpio_in[28]
*462 gpio_in[29]
*463 gpio_in[2]
*464 gpio_in[30]
*465 gpio_in[31]
*466 gpio_in[32]
*467 gpio_in[33]
*468 gpio_in[34]
*469 gpio_in[35]
*470 gpio_in[36]
*471 gpio_in[37]
*472 gpio_in[38]
*473 gpio_in[39]
*474 gpio_in[3]
*475 gpio_in[40]
*476 gpio_in[41]
*477 gpio_in[42]
*478 gpio_in[43]
*479 gpio_in[4]
*480 gpio_in[5]
*481 gpio_in[6]
*482 gpio_in[7]
*483 gpio_in[8]
*484 gpio_in[9]
*485 gpio_in_h[0]
*486 gpio_in_h[10]
*487 gpio_in_h[11]
*488 gpio_in_h[12]
*489 gpio_in_h[13]
*490 gpio_in_h[14]
*491 gpio_in_h[15]
*492 gpio_in_h[16]
*493 gpio_in_h[17]
*494 gpio_in_h[18]
*495 gpio_in_h[19]
*496 gpio_in_h[1]
*497 gpio_in_h[20]
*498 gpio_in_h[21]
*499 gpio_in_h[22]
*500 gpio_in_h[23]
*501 gpio_in_h[24]
*502 gpio_in_h[25]
*503 gpio_in_h[26]
*504 gpio_in_h[27]
*505 gpio_in_h[28]
*506 gpio_in_h[29]
*507 gpio_in_h[2]
*508 gpio_in_h[30]
*509 gpio_in_h[31]
*510 gpio_in_h[32]
*511 gpio_in_h[33]
*512 gpio_in_h[34]
*513 gpio_in_h[35]
*514 gpio_in_h[36]
*515 gpio_in_h[37]
*516 gpio_in_h[38]
*517 gpio_in_h[39]
*518 gpio_in_h[3]
*519 gpio_in_h[40]
*520 gpio_in_h[41]
*521 gpio_in_h[42]
*522 gpio_in_h[43]
*523 gpio_in_h[4]
*524 gpio_in_h[5]
*525 gpio_in_h[6]
*526 gpio_in_h[7]
*527 gpio_in_h[8]
*528 gpio_in_h[9]
*529 gpio_inp_dis[0]
*530 gpio_inp_dis[10]
*531 gpio_inp_dis[11]
*532 gpio_inp_dis[12]
*533 gpio_inp_dis[13]
*534 gpio_inp_dis[14]
*535 gpio_inp_dis[15]
*536 gpio_inp_dis[16]
*537 gpio_inp_dis[17]
*538 gpio_inp_dis[18]
*539 gpio_inp_dis[19]
*540 gpio_inp_dis[1]
*541 gpio_inp_dis[20]
*542 gpio_inp_dis[21]
*543 gpio_inp_dis[22]
*544 gpio_inp_dis[23]
*545 gpio_inp_dis[24]
*546 gpio_inp_dis[25]
*547 gpio_inp_dis[26]
*548 gpio_inp_dis[27]
*549 gpio_inp_dis[28]
*550 gpio_inp_dis[29]
*551 gpio_inp_dis[2]
*552 gpio_inp_dis[30]
*553 gpio_inp_dis[31]
*554 gpio_inp_dis[32]
*555 gpio_inp_dis[33]
*556 gpio_inp_dis[34]
*557 gpio_inp_dis[35]
*558 gpio_inp_dis[36]
*559 gpio_inp_dis[37]
*560 gpio_inp_dis[38]
*561 gpio_inp_dis[39]
*562 gpio_inp_dis[3]
*563 gpio_inp_dis[40]
*564 gpio_inp_dis[41]
*565 gpio_inp_dis[42]
*566 gpio_inp_dis[43]
*567 gpio_inp_dis[4]
*568 gpio_inp_dis[5]
*569 gpio_inp_dis[6]
*570 gpio_inp_dis[7]
*571 gpio_inp_dis[8]
*572 gpio_inp_dis[9]
*573 gpio_loopback_one[0]
*574 gpio_loopback_one[10]
*575 gpio_loopback_one[11]
*576 gpio_loopback_one[12]
*577 gpio_loopback_one[13]
*578 gpio_loopback_one[14]
*579 gpio_loopback_one[15]
*580 gpio_loopback_one[16]
*581 gpio_loopback_one[17]
*582 gpio_loopback_one[18]
*583 gpio_loopback_one[19]
*584 gpio_loopback_one[1]
*585 gpio_loopback_one[20]
*586 gpio_loopback_one[21]
*587 gpio_loopback_one[22]
*588 gpio_loopback_one[23]
*589 gpio_loopback_one[24]
*590 gpio_loopback_one[25]
*591 gpio_loopback_one[26]
*592 gpio_loopback_one[27]
*593 gpio_loopback_one[28]
*594 gpio_loopback_one[29]
*595 gpio_loopback_one[2]
*596 gpio_loopback_one[30]
*597 gpio_loopback_one[31]
*598 gpio_loopback_one[32]
*599 gpio_loopback_one[33]
*600 gpio_loopback_one[34]
*601 gpio_loopback_one[35]
*602 gpio_loopback_one[36]
*603 gpio_loopback_one[37]
*604 gpio_loopback_one[38]
*605 gpio_loopback_one[39]
*606 gpio_loopback_one[3]
*607 gpio_loopback_one[40]
*608 gpio_loopback_one[41]
*609 gpio_loopback_one[42]
*610 gpio_loopback_one[43]
*611 gpio_loopback_one[4]
*612 gpio_loopback_one[5]
*613 gpio_loopback_one[6]
*614 gpio_loopback_one[7]
*615 gpio_loopback_one[8]
*616 gpio_loopback_one[9]
*617 gpio_loopback_zero[0]
*618 gpio_loopback_zero[10]
*619 gpio_loopback_zero[11]
*620 gpio_loopback_zero[12]
*621 gpio_loopback_zero[13]
*622 gpio_loopback_zero[14]
*623 gpio_loopback_zero[15]
*624 gpio_loopback_zero[16]
*625 gpio_loopback_zero[17]
*626 gpio_loopback_zero[18]
*627 gpio_loopback_zero[19]
*628 gpio_loopback_zero[1]
*629 gpio_loopback_zero[20]
*630 gpio_loopback_zero[21]
*631 gpio_loopback_zero[22]
*632 gpio_loopback_zero[23]
*633 gpio_loopback_zero[24]
*634 gpio_loopback_zero[25]
*635 gpio_loopback_zero[26]
*636 gpio_loopback_zero[27]
*637 gpio_loopback_zero[28]
*638 gpio_loopback_zero[29]
*639 gpio_loopback_zero[2]
*640 gpio_loopback_zero[30]
*641 gpio_loopback_zero[31]
*642 gpio_loopback_zero[32]
*643 gpio_loopback_zero[33]
*644 gpio_loopback_zero[34]
*645 gpio_loopback_zero[35]
*646 gpio_loopback_zero[36]
*647 gpio_loopback_zero[37]
*648 gpio_loopback_zero[38]
*649 gpio_loopback_zero[39]
*650 gpio_loopback_zero[3]
*651 gpio_loopback_zero[40]
*652 gpio_loopback_zero[41]
*653 gpio_loopback_zero[42]
*654 gpio_loopback_zero[43]
*655 gpio_loopback_zero[4]
*656 gpio_loopback_zero[5]
*657 gpio_loopback_zero[6]
*658 gpio_loopback_zero[7]
*659 gpio_loopback_zero[8]
*660 gpio_loopback_zero[9]
*661 gpio_oeb[0]
*662 gpio_oeb[10]
*663 gpio_oeb[11]
*664 gpio_oeb[12]
*665 gpio_oeb[13]
*666 gpio_oeb[14]
*667 gpio_oeb[15]
*668 gpio_oeb[16]
*669 gpio_oeb[17]
*670 gpio_oeb[18]
*671 gpio_oeb[19]
*672 gpio_oeb[1]
*673 gpio_oeb[20]
*674 gpio_oeb[21]
*675 gpio_oeb[22]
*676 gpio_oeb[23]
*677 gpio_oeb[24]
*678 gpio_oeb[25]
*679 gpio_oeb[26]
*680 gpio_oeb[27]
*681 gpio_oeb[28]
*682 gpio_oeb[29]
*683 gpio_oeb[2]
*684 gpio_oeb[30]
*685 gpio_oeb[31]
*686 gpio_oeb[32]
*687 gpio_oeb[33]
*688 gpio_oeb[34]
*689 gpio_oeb[35]
*690 gpio_oeb[36]
*691 gpio_oeb[37]
*692 gpio_oeb[38]
*693 gpio_oeb[39]
*694 gpio_oeb[3]
*695 gpio_oeb[40]
*696 gpio_oeb[41]
*697 gpio_oeb[42]
*698 gpio_oeb[43]
*699 gpio_oeb[4]
*700 gpio_oeb[5]
*701 gpio_oeb[6]
*702 gpio_oeb[7]
*703 gpio_oeb[8]
*704 gpio_oeb[9]
*705 gpio_out[0]
*706 gpio_out[10]
*707 gpio_out[11]
*708 gpio_out[12]
*709 gpio_out[13]
*710 gpio_out[14]
*711 gpio_out[15]
*712 gpio_out[16]
*713 gpio_out[17]
*714 gpio_out[18]
*715 gpio_out[19]
*716 gpio_out[1]
*717 gpio_out[20]
*718 gpio_out[21]
*719 gpio_out[22]
*720 gpio_out[23]
*721 gpio_out[24]
*722 gpio_out[25]
*723 gpio_out[26]
*724 gpio_out[27]
*725 gpio_out[28]
*726 gpio_out[29]
*727 gpio_out[2]
*728 gpio_out[30]
*729 gpio_out[31]
*730 gpio_out[32]
*731 gpio_out[33]
*732 gpio_out[34]
*733 gpio_out[35]
*734 gpio_out[36]
*735 gpio_out[37]
*736 gpio_out[38]
*737 gpio_out[39]
*738 gpio_out[3]
*739 gpio_out[40]
*740 gpio_out[41]
*741 gpio_out[42]
*742 gpio_out[43]
*743 gpio_out[4]
*744 gpio_out[5]
*745 gpio_out[6]
*746 gpio_out[7]
*747 gpio_out[8]
*748 gpio_out[9]
*749 gpio_slow_sel[0]
*750 gpio_slow_sel[10]
*751 gpio_slow_sel[11]
*752 gpio_slow_sel[12]
*753 gpio_slow_sel[13]
*754 gpio_slow_sel[14]
*755 gpio_slow_sel[15]
*756 gpio_slow_sel[16]
*757 gpio_slow_sel[17]
*758 gpio_slow_sel[18]
*759 gpio_slow_sel[19]
*760 gpio_slow_sel[1]
*761 gpio_slow_sel[20]
*762 gpio_slow_sel[21]
*763 gpio_slow_sel[22]
*764 gpio_slow_sel[23]
*765 gpio_slow_sel[24]
*766 gpio_slow_sel[25]
*767 gpio_slow_sel[26]
*768 gpio_slow_sel[27]
*769 gpio_slow_sel[28]
*770 gpio_slow_sel[29]
*771 gpio_slow_sel[2]
*772 gpio_slow_sel[30]
*773 gpio_slow_sel[31]
*774 gpio_slow_sel[32]
*775 gpio_slow_sel[33]
*776 gpio_slow_sel[34]
*777 gpio_slow_sel[35]
*778 gpio_slow_sel[36]
*779 gpio_slow_sel[37]
*780 gpio_slow_sel[38]
*781 gpio_slow_sel[39]
*782 gpio_slow_sel[3]
*783 gpio_slow_sel[40]
*784 gpio_slow_sel[41]
*785 gpio_slow_sel[42]
*786 gpio_slow_sel[43]
*787 gpio_slow_sel[4]
*788 gpio_slow_sel[5]
*789 gpio_slow_sel[6]
*790 gpio_slow_sel[7]
*791 gpio_slow_sel[8]
*792 gpio_slow_sel[9]
*793 gpio_vtrip_sel[0]
*794 gpio_vtrip_sel[10]
*795 gpio_vtrip_sel[11]
*796 gpio_vtrip_sel[12]
*797 gpio_vtrip_sel[13]
*798 gpio_vtrip_sel[14]
*799 gpio_vtrip_sel[15]
*800 gpio_vtrip_sel[16]
*801 gpio_vtrip_sel[17]
*802 gpio_vtrip_sel[18]
*803 gpio_vtrip_sel[19]
*804 gpio_vtrip_sel[1]
*805 gpio_vtrip_sel[20]
*806 gpio_vtrip_sel[21]
*807 gpio_vtrip_sel[22]
*808 gpio_vtrip_sel[23]
*809 gpio_vtrip_sel[24]
*810 gpio_vtrip_sel[25]
*811 gpio_vtrip_sel[26]
*812 gpio_vtrip_sel[27]
*813 gpio_vtrip_sel[28]
*814 gpio_vtrip_sel[29]
*815 gpio_vtrip_sel[2]
*816 gpio_vtrip_sel[30]
*817 gpio_vtrip_sel[31]
*818 gpio_vtrip_sel[32]
*819 gpio_vtrip_sel[33]
*820 gpio_vtrip_sel[34]
*821 gpio_vtrip_sel[35]
*822 gpio_vtrip_sel[36]
*823 gpio_vtrip_sel[37]
*824 gpio_vtrip_sel[38]
*825 gpio_vtrip_sel[39]
*826 gpio_vtrip_sel[3]
*827 gpio_vtrip_sel[40]
*828 gpio_vtrip_sel[41]
*829 gpio_vtrip_sel[42]
*830 gpio_vtrip_sel[43]
*831 gpio_vtrip_sel[4]
*832 gpio_vtrip_sel[5]
*833 gpio_vtrip_sel[6]
*834 gpio_vtrip_sel[7]
*835 gpio_vtrip_sel[8]
*836 gpio_vtrip_sel[9]
*837 mask_rev[0]
*838 mask_rev[10]
*839 mask_rev[11]
*840 mask_rev[12]
*841 mask_rev[13]
*842 mask_rev[14]
*843 mask_rev[15]
*844 mask_rev[16]
*845 mask_rev[17]
*846 mask_rev[18]
*847 mask_rev[19]
*848 mask_rev[1]
*849 mask_rev[20]
*850 mask_rev[21]
*851 mask_rev[22]
*852 mask_rev[23]
*853 mask_rev[24]
*854 mask_rev[25]
*855 mask_rev[26]
*856 mask_rev[27]
*857 mask_rev[28]
*858 mask_rev[29]
*859 mask_rev[2]
*860 mask_rev[30]
*861 mask_rev[31]
*862 mask_rev[3]
*863 mask_rev[4]
*864 mask_rev[5]
*865 mask_rev[6]
*866 mask_rev[7]
*867 mask_rev[8]
*868 mask_rev[9]
*869 por_l
*870 porb_h
*871 porb_l
*872 resetb_h
*873 resetb_l
*874 mprj

*PORTS
analog_io[0] I
analog_io[10] I
analog_io[11] I
analog_io[12] I
analog_io[13] I
analog_io[14] I
analog_io[15] I
analog_io[16] I
analog_io[17] I
analog_io[18] I
analog_io[19] I
analog_io[1] I
analog_io[20] I
analog_io[21] I
analog_io[22] I
analog_io[23] I
analog_io[24] I
analog_io[25] I
analog_io[26] I
analog_io[27] I
analog_io[28] I
analog_io[29] I
analog_io[2] I
analog_io[30] I
analog_io[31] I
analog_io[32] I
analog_io[33] I
analog_io[34] I
analog_io[35] I
analog_io[36] I
analog_io[37] I
analog_io[38] I
analog_io[39] I
analog_io[3] I
analog_io[40] I
analog_io[41] I
analog_io[42] I
analog_io[43] I
analog_io[4] I
analog_io[5] I
analog_io[6] I
analog_io[7] I
analog_io[8] I
analog_io[9] I
analog_noesd_io[0] I
analog_noesd_io[10] I
analog_noesd_io[11] I
analog_noesd_io[12] I
analog_noesd_io[13] I
analog_noesd_io[14] I
analog_noesd_io[15] I
analog_noesd_io[16] I
analog_noesd_io[17] I
analog_noesd_io[18] I
analog_noesd_io[19] I
analog_noesd_io[1] I
analog_noesd_io[20] I
analog_noesd_io[21] I
analog_noesd_io[22] I
analog_noesd_io[23] I
analog_noesd_io[24] I
analog_noesd_io[25] I
analog_noesd_io[26] I
analog_noesd_io[27] I
analog_noesd_io[28] I
analog_noesd_io[29] I
analog_noesd_io[2] I
analog_noesd_io[30] I
analog_noesd_io[31] I
analog_noesd_io[32] I
analog_noesd_io[33] I
analog_noesd_io[34] I
analog_noesd_io[35] I
analog_noesd_io[36] I
analog_noesd_io[37] I
analog_noesd_io[38] I
analog_noesd_io[39] I
analog_noesd_io[3] I
analog_noesd_io[40] I
analog_noesd_io[41] I
analog_noesd_io[42] I
analog_noesd_io[43] I
analog_noesd_io[4] I
analog_noesd_io[5] I
analog_noesd_io[6] I
analog_noesd_io[7] I
analog_noesd_io[8] I
analog_noesd_io[9] I
gpio_analog_en[0] O
gpio_analog_en[10] O
gpio_analog_en[11] O
gpio_analog_en[12] O
gpio_analog_en[13] O
gpio_analog_en[14] O
gpio_analog_en[15] O
gpio_analog_en[16] O
gpio_analog_en[17] O
gpio_analog_en[18] O
gpio_analog_en[19] O
gpio_analog_en[1] O
gpio_analog_en[20] O
gpio_analog_en[21] O
gpio_analog_en[22] O
gpio_analog_en[23] O
gpio_analog_en[24] O
gpio_analog_en[25] O
gpio_analog_en[26] O
gpio_analog_en[27] O
gpio_analog_en[28] O
gpio_analog_en[29] O
gpio_analog_en[2] O
gpio_analog_en[30] O
gpio_analog_en[31] O
gpio_analog_en[32] O
gpio_analog_en[33] O
gpio_analog_en[34] O
gpio_analog_en[35] O
gpio_analog_en[36] O
gpio_analog_en[37] O
gpio_analog_en[38] O
gpio_analog_en[39] O
gpio_analog_en[3] O
gpio_analog_en[40] O
gpio_analog_en[41] O
gpio_analog_en[42] O
gpio_analog_en[43] O
gpio_analog_en[4] O
gpio_analog_en[5] O
gpio_analog_en[6] O
gpio_analog_en[7] O
gpio_analog_en[8] O
gpio_analog_en[9] O
gpio_analog_pol[0] O
gpio_analog_pol[10] O
gpio_analog_pol[11] O
gpio_analog_pol[12] O
gpio_analog_pol[13] O
gpio_analog_pol[14] O
gpio_analog_pol[15] O
gpio_analog_pol[16] O
gpio_analog_pol[17] O
gpio_analog_pol[18] O
gpio_analog_pol[19] O
gpio_analog_pol[1] O
gpio_analog_pol[20] O
gpio_analog_pol[21] O
gpio_analog_pol[22] O
gpio_analog_pol[23] O
gpio_analog_pol[24] O
gpio_analog_pol[25] O
gpio_analog_pol[26] O
gpio_analog_pol[27] O
gpio_analog_pol[28] O
gpio_analog_pol[29] O
gpio_analog_pol[2] O
gpio_analog_pol[30] O
gpio_analog_pol[31] O
gpio_analog_pol[32] O
gpio_analog_pol[33] O
gpio_analog_pol[34] O
gpio_analog_pol[35] O
gpio_analog_pol[36] O
gpio_analog_pol[37] O
gpio_analog_pol[38] O
gpio_analog_pol[39] O
gpio_analog_pol[3] O
gpio_analog_pol[40] O
gpio_analog_pol[41] O
gpio_analog_pol[42] O
gpio_analog_pol[43] O
gpio_analog_pol[4] O
gpio_analog_pol[5] O
gpio_analog_pol[6] O
gpio_analog_pol[7] O
gpio_analog_pol[8] O
gpio_analog_pol[9] O
gpio_analog_sel[0] O
gpio_analog_sel[10] O
gpio_analog_sel[11] O
gpio_analog_sel[12] O
gpio_analog_sel[13] O
gpio_analog_sel[14] O
gpio_analog_sel[15] O
gpio_analog_sel[16] O
gpio_analog_sel[17] O
gpio_analog_sel[18] O
gpio_analog_sel[19] O
gpio_analog_sel[1] O
gpio_analog_sel[20] O
gpio_analog_sel[21] O
gpio_analog_sel[22] O
gpio_analog_sel[23] O
gpio_analog_sel[24] O
gpio_analog_sel[25] O
gpio_analog_sel[26] O
gpio_analog_sel[27] O
gpio_analog_sel[28] O
gpio_analog_sel[29] O
gpio_analog_sel[2] O
gpio_analog_sel[30] O
gpio_analog_sel[31] O
gpio_analog_sel[32] O
gpio_analog_sel[33] O
gpio_analog_sel[34] O
gpio_analog_sel[35] O
gpio_analog_sel[36] O
gpio_analog_sel[37] O
gpio_analog_sel[38] O
gpio_analog_sel[39] O
gpio_analog_sel[3] O
gpio_analog_sel[40] O
gpio_analog_sel[41] O
gpio_analog_sel[42] O
gpio_analog_sel[43] O
gpio_analog_sel[4] O
gpio_analog_sel[5] O
gpio_analog_sel[6] O
gpio_analog_sel[7] O
gpio_analog_sel[8] O
gpio_analog_sel[9] O
gpio_dm0[0] O
gpio_dm0[10] O
gpio_dm0[11] O
gpio_dm0[12] O
gpio_dm0[13] O
gpio_dm0[14] O
gpio_dm0[15] O
gpio_dm0[16] O
gpio_dm0[17] O
gpio_dm0[18] O
gpio_dm0[19] O
gpio_dm0[1] O
gpio_dm0[20] O
gpio_dm0[21] O
gpio_dm0[22] O
gpio_dm0[23] O
gpio_dm0[24] O
gpio_dm0[25] O
gpio_dm0[26] O
gpio_dm0[27] O
gpio_dm0[28] O
gpio_dm0[29] O
gpio_dm0[2] O
gpio_dm0[30] O
gpio_dm0[31] O
gpio_dm0[32] O
gpio_dm0[33] O
gpio_dm0[34] O
gpio_dm0[35] O
gpio_dm0[36] O
gpio_dm0[37] O
gpio_dm0[38] O
gpio_dm0[39] O
gpio_dm0[3] O
gpio_dm0[40] O
gpio_dm0[41] O
gpio_dm0[42] O
gpio_dm0[43] O
gpio_dm0[4] O
gpio_dm0[5] O
gpio_dm0[6] O
gpio_dm0[7] O
gpio_dm0[8] O
gpio_dm0[9] O
gpio_dm1[0] O
gpio_dm1[10] O
gpio_dm1[11] O
gpio_dm1[12] O
gpio_dm1[13] O
gpio_dm1[14] O
gpio_dm1[15] O
gpio_dm1[16] O
gpio_dm1[17] O
gpio_dm1[18] O
gpio_dm1[19] O
gpio_dm1[1] O
gpio_dm1[20] O
gpio_dm1[21] O
gpio_dm1[22] O
gpio_dm1[23] O
gpio_dm1[24] O
gpio_dm1[25] O
gpio_dm1[26] O
gpio_dm1[27] O
gpio_dm1[28] O
gpio_dm1[29] O
gpio_dm1[2] O
gpio_dm1[30] O
gpio_dm1[31] O
gpio_dm1[32] O
gpio_dm1[33] O
gpio_dm1[34] O
gpio_dm1[35] O
gpio_dm1[36] O
gpio_dm1[37] O
gpio_dm1[38] O
gpio_dm1[39] O
gpio_dm1[3] O
gpio_dm1[40] O
gpio_dm1[41] O
gpio_dm1[42] O
gpio_dm1[43] O
gpio_dm1[4] O
gpio_dm1[5] O
gpio_dm1[6] O
gpio_dm1[7] O
gpio_dm1[8] O
gpio_dm1[9] O
gpio_dm2[0] O
gpio_dm2[10] O
gpio_dm2[11] O
gpio_dm2[12] O
gpio_dm2[13] O
gpio_dm2[14] O
gpio_dm2[15] O
gpio_dm2[16] O
gpio_dm2[17] O
gpio_dm2[18] O
gpio_dm2[19] O
gpio_dm2[1] O
gpio_dm2[20] O
gpio_dm2[21] O
gpio_dm2[22] O
gpio_dm2[23] O
gpio_dm2[24] O
gpio_dm2[25] O
gpio_dm2[26] O
gpio_dm2[27] O
gpio_dm2[28] O
gpio_dm2[29] O
gpio_dm2[2] O
gpio_dm2[30] O
gpio_dm2[31] O
gpio_dm2[32] O
gpio_dm2[33] O
gpio_dm2[34] O
gpio_dm2[35] O
gpio_dm2[36] O
gpio_dm2[37] O
gpio_dm2[38] O
gpio_dm2[39] O
gpio_dm2[3] O
gpio_dm2[40] O
gpio_dm2[41] O
gpio_dm2[42] O
gpio_dm2[43] O
gpio_dm2[4] O
gpio_dm2[5] O
gpio_dm2[6] O
gpio_dm2[7] O
gpio_dm2[8] O
gpio_dm2[9] O
gpio_holdover[0] O
gpio_holdover[10] O
gpio_holdover[11] O
gpio_holdover[12] O
gpio_holdover[13] O
gpio_holdover[14] O
gpio_holdover[15] O
gpio_holdover[16] O
gpio_holdover[17] O
gpio_holdover[18] O
gpio_holdover[19] O
gpio_holdover[1] O
gpio_holdover[20] O
gpio_holdover[21] O
gpio_holdover[22] O
gpio_holdover[23] O
gpio_holdover[24] O
gpio_holdover[25] O
gpio_holdover[26] O
gpio_holdover[27] O
gpio_holdover[28] O
gpio_holdover[29] O
gpio_holdover[2] O
gpio_holdover[30] O
gpio_holdover[31] O
gpio_holdover[32] O
gpio_holdover[33] O
gpio_holdover[34] O
gpio_holdover[35] O
gpio_holdover[36] O
gpio_holdover[37] O
gpio_holdover[38] O
gpio_holdover[39] O
gpio_holdover[3] O
gpio_holdover[40] O
gpio_holdover[41] O
gpio_holdover[42] O
gpio_holdover[43] O
gpio_holdover[4] O
gpio_holdover[5] O
gpio_holdover[6] O
gpio_holdover[7] O
gpio_holdover[8] O
gpio_holdover[9] O
gpio_ib_mode_sel[0] O
gpio_ib_mode_sel[10] O
gpio_ib_mode_sel[11] O
gpio_ib_mode_sel[12] O
gpio_ib_mode_sel[13] O
gpio_ib_mode_sel[14] O
gpio_ib_mode_sel[15] O
gpio_ib_mode_sel[16] O
gpio_ib_mode_sel[17] O
gpio_ib_mode_sel[18] O
gpio_ib_mode_sel[19] O
gpio_ib_mode_sel[1] O
gpio_ib_mode_sel[20] O
gpio_ib_mode_sel[21] O
gpio_ib_mode_sel[22] O
gpio_ib_mode_sel[23] O
gpio_ib_mode_sel[24] O
gpio_ib_mode_sel[25] O
gpio_ib_mode_sel[26] O
gpio_ib_mode_sel[27] O
gpio_ib_mode_sel[28] O
gpio_ib_mode_sel[29] O
gpio_ib_mode_sel[2] O
gpio_ib_mode_sel[30] O
gpio_ib_mode_sel[31] O
gpio_ib_mode_sel[32] O
gpio_ib_mode_sel[33] O
gpio_ib_mode_sel[34] O
gpio_ib_mode_sel[35] O
gpio_ib_mode_sel[36] O
gpio_ib_mode_sel[37] O
gpio_ib_mode_sel[38] O
gpio_ib_mode_sel[39] O
gpio_ib_mode_sel[3] O
gpio_ib_mode_sel[40] O
gpio_ib_mode_sel[41] O
gpio_ib_mode_sel[42] O
gpio_ib_mode_sel[43] O
gpio_ib_mode_sel[4] O
gpio_ib_mode_sel[5] O
gpio_ib_mode_sel[6] O
gpio_ib_mode_sel[7] O
gpio_ib_mode_sel[8] O
gpio_ib_mode_sel[9] O
gpio_in[0] I
gpio_in[10] I
gpio_in[11] I
gpio_in[12] I
gpio_in[13] I
gpio_in[14] I
gpio_in[15] I
gpio_in[16] I
gpio_in[17] I
gpio_in[18] I
gpio_in[19] I
gpio_in[1] I
gpio_in[20] I
gpio_in[21] I
gpio_in[22] I
gpio_in[23] I
gpio_in[24] I
gpio_in[25] I
gpio_in[26] I
gpio_in[27] I
gpio_in[28] I
gpio_in[29] I
gpio_in[2] I
gpio_in[30] I
gpio_in[31] I
gpio_in[32] I
gpio_in[33] I
gpio_in[34] I
gpio_in[35] I
gpio_in[36] I
gpio_in[37] I
gpio_in[38] I
gpio_in[39] I
gpio_in[3] I
gpio_in[40] I
gpio_in[41] I
gpio_in[42] I
gpio_in[43] I
gpio_in[4] I
gpio_in[5] I
gpio_in[6] I
gpio_in[7] I
gpio_in[8] I
gpio_in[9] I
gpio_in_h[0] I
gpio_in_h[10] I
gpio_in_h[11] I
gpio_in_h[12] I
gpio_in_h[13] I
gpio_in_h[14] I
gpio_in_h[15] I
gpio_in_h[16] I
gpio_in_h[17] I
gpio_in_h[18] I
gpio_in_h[19] I
gpio_in_h[1] I
gpio_in_h[20] I
gpio_in_h[21] I
gpio_in_h[22] I
gpio_in_h[23] I
gpio_in_h[24] I
gpio_in_h[25] I
gpio_in_h[26] I
gpio_in_h[27] I
gpio_in_h[28] I
gpio_in_h[29] I
gpio_in_h[2] I
gpio_in_h[30] I
gpio_in_h[31] I
gpio_in_h[32] I
gpio_in_h[33] I
gpio_in_h[34] I
gpio_in_h[35] I
gpio_in_h[36] I
gpio_in_h[37] I
gpio_in_h[38] I
gpio_in_h[39] I
gpio_in_h[3] I
gpio_in_h[40] I
gpio_in_h[41] I
gpio_in_h[42] I
gpio_in_h[43] I
gpio_in_h[4] I
gpio_in_h[5] I
gpio_in_h[6] I
gpio_in_h[7] I
gpio_in_h[8] I
gpio_in_h[9] I
gpio_inp_dis[0] O
gpio_inp_dis[10] O
gpio_inp_dis[11] O
gpio_inp_dis[12] O
gpio_inp_dis[13] O
gpio_inp_dis[14] O
gpio_inp_dis[15] O
gpio_inp_dis[16] O
gpio_inp_dis[17] O
gpio_inp_dis[18] O
gpio_inp_dis[19] O
gpio_inp_dis[1] O
gpio_inp_dis[20] O
gpio_inp_dis[21] O
gpio_inp_dis[22] O
gpio_inp_dis[23] O
gpio_inp_dis[24] O
gpio_inp_dis[25] O
gpio_inp_dis[26] O
gpio_inp_dis[27] O
gpio_inp_dis[28] O
gpio_inp_dis[29] O
gpio_inp_dis[2] O
gpio_inp_dis[30] O
gpio_inp_dis[31] O
gpio_inp_dis[32] O
gpio_inp_dis[33] O
gpio_inp_dis[34] O
gpio_inp_dis[35] O
gpio_inp_dis[36] O
gpio_inp_dis[37] O
gpio_inp_dis[38] O
gpio_inp_dis[39] O
gpio_inp_dis[3] O
gpio_inp_dis[40] O
gpio_inp_dis[41] O
gpio_inp_dis[42] O
gpio_inp_dis[43] O
gpio_inp_dis[4] O
gpio_inp_dis[5] O
gpio_inp_dis[6] O
gpio_inp_dis[7] O
gpio_inp_dis[8] O
gpio_inp_dis[9] O
gpio_loopback_one[0] I
gpio_loopback_one[10] I
gpio_loopback_one[11] I
gpio_loopback_one[12] I
gpio_loopback_one[13] I
gpio_loopback_one[14] I
gpio_loopback_one[15] I
gpio_loopback_one[16] I
gpio_loopback_one[17] I
gpio_loopback_one[18] I
gpio_loopback_one[19] I
gpio_loopback_one[1] I
gpio_loopback_one[20] I
gpio_loopback_one[21] I
gpio_loopback_one[22] I
gpio_loopback_one[23] I
gpio_loopback_one[24] I
gpio_loopback_one[25] I
gpio_loopback_one[26] I
gpio_loopback_one[27] I
gpio_loopback_one[28] I
gpio_loopback_one[29] I
gpio_loopback_one[2] I
gpio_loopback_one[30] I
gpio_loopback_one[31] I
gpio_loopback_one[32] I
gpio_loopback_one[33] I
gpio_loopback_one[34] I
gpio_loopback_one[35] I
gpio_loopback_one[36] I
gpio_loopback_one[37] I
gpio_loopback_one[38] I
gpio_loopback_one[39] I
gpio_loopback_one[3] I
gpio_loopback_one[40] I
gpio_loopback_one[41] I
gpio_loopback_one[42] I
gpio_loopback_one[43] I
gpio_loopback_one[4] I
gpio_loopback_one[5] I
gpio_loopback_one[6] I
gpio_loopback_one[7] I
gpio_loopback_one[8] I
gpio_loopback_one[9] I
gpio_loopback_zero[0] I
gpio_loopback_zero[10] I
gpio_loopback_zero[11] I
gpio_loopback_zero[12] I
gpio_loopback_zero[13] I
gpio_loopback_zero[14] I
gpio_loopback_zero[15] I
gpio_loopback_zero[16] I
gpio_loopback_zero[17] I
gpio_loopback_zero[18] I
gpio_loopback_zero[19] I
gpio_loopback_zero[1] I
gpio_loopback_zero[20] I
gpio_loopback_zero[21] I
gpio_loopback_zero[22] I
gpio_loopback_zero[23] I
gpio_loopback_zero[24] I
gpio_loopback_zero[25] I
gpio_loopback_zero[26] I
gpio_loopback_zero[27] I
gpio_loopback_zero[28] I
gpio_loopback_zero[29] I
gpio_loopback_zero[2] I
gpio_loopback_zero[30] I
gpio_loopback_zero[31] I
gpio_loopback_zero[32] I
gpio_loopback_zero[33] I
gpio_loopback_zero[34] I
gpio_loopback_zero[35] I
gpio_loopback_zero[36] I
gpio_loopback_zero[37] I
gpio_loopback_zero[38] I
gpio_loopback_zero[39] I
gpio_loopback_zero[3] I
gpio_loopback_zero[40] I
gpio_loopback_zero[41] I
gpio_loopback_zero[42] I
gpio_loopback_zero[43] I
gpio_loopback_zero[4] I
gpio_loopback_zero[5] I
gpio_loopback_zero[6] I
gpio_loopback_zero[7] I
gpio_loopback_zero[8] I
gpio_loopback_zero[9] I
gpio_oeb[0] O
gpio_oeb[10] O
gpio_oeb[11] O
gpio_oeb[12] O
gpio_oeb[13] O
gpio_oeb[14] O
gpio_oeb[15] O
gpio_oeb[16] O
gpio_oeb[17] O
gpio_oeb[18] O
gpio_oeb[19] O
gpio_oeb[1] O
gpio_oeb[20] O
gpio_oeb[21] O
gpio_oeb[22] O
gpio_oeb[23] O
gpio_oeb[24] O
gpio_oeb[25] O
gpio_oeb[26] O
gpio_oeb[27] O
gpio_oeb[28] O
gpio_oeb[29] O
gpio_oeb[2] O
gpio_oeb[30] O
gpio_oeb[31] O
gpio_oeb[32] O
gpio_oeb[33] O
gpio_oeb[34] O
gpio_oeb[35] O
gpio_oeb[36] O
gpio_oeb[37] O
gpio_oeb[38] O
gpio_oeb[39] O
gpio_oeb[3] O
gpio_oeb[40] O
gpio_oeb[41] O
gpio_oeb[42] O
gpio_oeb[43] O
gpio_oeb[4] O
gpio_oeb[5] O
gpio_oeb[6] O
gpio_oeb[7] O
gpio_oeb[8] O
gpio_oeb[9] O
gpio_out[0] O
gpio_out[10] O
gpio_out[11] O
gpio_out[12] O
gpio_out[13] O
gpio_out[14] O
gpio_out[15] O
gpio_out[16] O
gpio_out[17] O
gpio_out[18] O
gpio_out[19] O
gpio_out[1] O
gpio_out[20] O
gpio_out[21] O
gpio_out[22] O
gpio_out[23] O
gpio_out[24] O
gpio_out[25] O
gpio_out[26] O
gpio_out[27] O
gpio_out[28] O
gpio_out[29] O
gpio_out[2] O
gpio_out[30] O
gpio_out[31] O
gpio_out[32] O
gpio_out[33] O
gpio_out[34] O
gpio_out[35] O
gpio_out[36] O
gpio_out[37] O
gpio_out[38] O
gpio_out[39] O
gpio_out[3] O
gpio_out[40] O
gpio_out[41] O
gpio_out[42] O
gpio_out[43] O
gpio_out[4] O
gpio_out[5] O
gpio_out[6] O
gpio_out[7] O
gpio_out[8] O
gpio_out[9] O
gpio_slow_sel[0] O
gpio_slow_sel[10] O
gpio_slow_sel[11] O
gpio_slow_sel[12] O
gpio_slow_sel[13] O
gpio_slow_sel[14] O
gpio_slow_sel[15] O
gpio_slow_sel[16] O
gpio_slow_sel[17] O
gpio_slow_sel[18] O
gpio_slow_sel[19] O
gpio_slow_sel[1] O
gpio_slow_sel[20] O
gpio_slow_sel[21] O
gpio_slow_sel[22] O
gpio_slow_sel[23] O
gpio_slow_sel[24] O
gpio_slow_sel[25] O
gpio_slow_sel[26] O
gpio_slow_sel[27] O
gpio_slow_sel[28] O
gpio_slow_sel[29] O
gpio_slow_sel[2] O
gpio_slow_sel[30] O
gpio_slow_sel[31] O
gpio_slow_sel[32] O
gpio_slow_sel[33] O
gpio_slow_sel[34] O
gpio_slow_sel[35] O
gpio_slow_sel[36] O
gpio_slow_sel[37] O
gpio_slow_sel[38] O
gpio_slow_sel[39] O
gpio_slow_sel[3] O
gpio_slow_sel[40] O
gpio_slow_sel[41] O
gpio_slow_sel[42] O
gpio_slow_sel[43] O
gpio_slow_sel[4] O
gpio_slow_sel[5] O
gpio_slow_sel[6] O
gpio_slow_sel[7] O
gpio_slow_sel[8] O
gpio_slow_sel[9] O
gpio_vtrip_sel[0] O
gpio_vtrip_sel[10] O
gpio_vtrip_sel[11] O
gpio_vtrip_sel[12] O
gpio_vtrip_sel[13] O
gpio_vtrip_sel[14] O
gpio_vtrip_sel[15] O
gpio_vtrip_sel[16] O
gpio_vtrip_sel[17] O
gpio_vtrip_sel[18] O
gpio_vtrip_sel[19] O
gpio_vtrip_sel[1] O
gpio_vtrip_sel[20] O
gpio_vtrip_sel[21] O
gpio_vtrip_sel[22] O
gpio_vtrip_sel[23] O
gpio_vtrip_sel[24] O
gpio_vtrip_sel[25] O
gpio_vtrip_sel[26] O
gpio_vtrip_sel[27] O
gpio_vtrip_sel[28] O
gpio_vtrip_sel[29] O
gpio_vtrip_sel[2] O
gpio_vtrip_sel[30] O
gpio_vtrip_sel[31] O
gpio_vtrip_sel[32] O
gpio_vtrip_sel[33] O
gpio_vtrip_sel[34] O
gpio_vtrip_sel[35] O
gpio_vtrip_sel[36] O
gpio_vtrip_sel[37] O
gpio_vtrip_sel[38] O
gpio_vtrip_sel[39] O
gpio_vtrip_sel[3] O
gpio_vtrip_sel[40] O
gpio_vtrip_sel[41] O
gpio_vtrip_sel[42] O
gpio_vtrip_sel[43] O
gpio_vtrip_sel[4] O
gpio_vtrip_sel[5] O
gpio_vtrip_sel[6] O
gpio_vtrip_sel[7] O
gpio_vtrip_sel[8] O
gpio_vtrip_sel[9] O
mask_rev[0] I
mask_rev[10] I
mask_rev[11] I
mask_rev[12] I
mask_rev[13] I
mask_rev[14] I
mask_rev[15] I
mask_rev[16] I
mask_rev[17] I
mask_rev[18] I
mask_rev[19] I
mask_rev[1] I
mask_rev[20] I
mask_rev[21] I
mask_rev[22] I
mask_rev[23] I
mask_rev[24] I
mask_rev[25] I
mask_rev[26] I
mask_rev[27] I
mask_rev[28] I
mask_rev[29] I
mask_rev[2] I
mask_rev[30] I
mask_rev[31] I
mask_rev[3] I
mask_rev[4] I
mask_rev[5] I
mask_rev[6] I
mask_rev[7] I
mask_rev[8] I
mask_rev[9] I
por_l I
porb_h I
porb_l I
resetb_h I
resetb_l I

*D_NET *89 0.386949
*CONN
*P gpio_analog_en[0] O
*I *874:gpio_analog_en[0] O *D counter_gpio_config_example
*CAP
1 gpio_analog_en[0] 0.00358159
2 *874:gpio_analog_en[0] 0.000185983
3 *89:13 0.0266428
4 *89:11 0.0230612
5 *89:9 0.133613
6 *89:7 0.133799
7 gpio_analog_en[0] gpio_dm1[0] 3.7538e-06
8 gpio_analog_en[0] *221:17 0.00153291
9 *89:7 *136:7 0
10 *89:7 *192:7 3.60787e-05
11 *89:7 *381:11 3.64239e-05
12 *89:9 *136:9 0
13 *89:9 *297:9 0
14 *89:9 *381:11 0.000138702
15 *89:13 gpio_analog_pol[1] 0.000523868
16 *89:13 *188:13 0.026777
17 *89:13 *348:13 0.0187434
18 *89:13 *483:11 0.00845409
19 *89:13 *484:11 0.00981957
*RES
1 *874:gpio_analog_en[0] *89:7 0.556167 
2 *89:7 *89:9 362.542 
3 *89:9 *89:11 3.41 
4 *89:11 *89:13 96.0335 
5 *89:13 gpio_analog_en[0] 12.311 
*END

*D_NET *90 0.534982
*CONN
*P gpio_analog_en[10] O
*I *874:gpio_analog_en[10] O *D counter_gpio_config_example
*CAP
1 gpio_analog_en[10] 0.00308376
2 *874:gpio_analog_en[10] 0.000205277
3 *90:17 0.0633972
4 *90:15 0.0603134
5 *90:13 0.123792
6 *90:11 0.123792
7 *90:9 0.0784169
8 *90:7 0.0786222
9 gpio_analog_en[10] *222:17 0.00052228
10 *90:7 *146:11 0
11 *90:7 *182:11 3.33637e-05
12 *90:9 *146:11 0
13 *90:9 *182:11 0.00280345
14 *90:17 *222:17 0
15 *90:17 *266:21 0
*RES
1 *874:gpio_analog_en[10] *90:7 0.556167 
2 *90:7 *90:9 206.734 
3 *90:9 *90:11 3.41 
4 *90:11 *90:13 363.113 
5 *90:13 *90:15 3.41 
6 *90:15 *90:17 157.441 
7 *90:17 gpio_analog_en[10] 7.26072 
*END

*D_NET *91 1.01156
*CONN
*P gpio_analog_en[11] O
*I *874:gpio_analog_en[11] O *D counter_gpio_config_example
*CAP
1 gpio_analog_en[11] 0.00143723
2 *874:gpio_analog_en[11] 0.00209457
3 *91:21 0.117053
4 *91:19 0.115616
5 *91:17 0.059556
6 *91:15 0.059687
7 *91:9 0.0221321
8 *91:7 0.0240958
9 gpio_analog_en[11] gpio_dm0[11] 0.00058726
10 *91:7 *163:7 0.000448274
11 *91:7 *279:7 0.000449337
12 *91:9 *93:9 0
13 *91:9 *99:9 0.00489257
14 *91:9 *105:17 0.0187998
15 *91:9 *115:9 0.00127916
16 *91:9 *116:9 0.0098931
17 *91:9 *122:15 0.00164976
18 *91:9 *123:9 0.00020996
19 *91:9 *244:9 0.00126975
20 *91:9 *283:9 0.00225987
21 *91:9 *309:9 0.0231977
22 *91:9 *779:18 0.0302937
23 *91:17 *105:17 0.0369667
24 *91:17 *115:9 0.0074921
25 *91:17 *283:9 0.0139688
26 *91:17 *402:9 0.16516
27 *91:17 *779:18 0.000839888
28 *91:21 gpio_dm0[11] 0.000395189
29 *91:21 *223:13 0.289837
30 *91:21 *267:17 0
*RES
1 *874:gpio_analog_en[11] *91:7 9.0547 
2 *91:7 *91:9 122.986 
3 *91:9 *91:15 7.04717 
4 *91:15 *91:17 2033.45 
5 *91:17 *91:19 3.41 
6 *91:19 *91:21 467.219 
7 *91:21 gpio_analog_en[11] 3.65112 
*END

*D_NET *92 0.715548
*CONN
*P gpio_analog_en[12] O
*I *874:gpio_analog_en[12] O *D counter_gpio_config_example
*CAP
1 gpio_analog_en[12] 0.00461737
2 *874:gpio_analog_en[12] 0.000154613
3 *92:13 0.134046
4 *92:11 0.129429
5 *92:9 0.129617
6 *92:7 0.129771
7 gpio_analog_en[12] *224:13 0.0011767
8 gpio_analog_en[12] *268:21 0.00376865
9 *92:7 *166:7 3.6865e-05
10 *92:7 *166:9 6.00628e-06
11 *92:7 *543:11 3.8305e-05
12 *92:9 *166:9 0.00446082
13 *92:9 *209:9 0
14 *92:9 *543:11 2.14269e-05
15 *92:13 *100:13 0
16 *92:13 *131:13 0
17 *92:13 *199:15 0.00148544
18 *92:13 *261:13 0.0186057
19 *92:13 *331:13 0.0269213
20 *92:13 *353:13 0.000804837
21 *92:13 *570:14 0.0668239
22 *92:13 *788:13 0.00210152
23 *92:13 *798:21 0.0616619
*RES
1 *874:gpio_analog_en[12] *92:7 0.556167 
2 *92:7 *92:9 358.074 
3 *92:9 *92:11 3.41 
4 *92:11 *92:13 463.787 
5 *92:13 gpio_analog_en[12] 16.9593 
*END

*D_NET *93 0.860697
*CONN
*P gpio_analog_en[13] O
*I *874:gpio_analog_en[13] O *D counter_gpio_config_example
*CAP
1 gpio_analog_en[13] 0.00325338
2 *874:gpio_analog_en[13] 0.00184378
3 *93:21 0.173003
4 *93:19 0.16975
5 *93:17 0.101676
6 *93:15 0.101821
7 *93:9 0.00994195
8 *93:7 0.0116408
9 gpio_analog_en[13] *225:13 0
10 *93:7 *371:7 0.000389452
11 *93:7 *426:7 0.000379918
12 *93:9 *244:9 0.0116934
13 *93:9 *309:9 0
14 *93:9 *426:9 0.0230197
15 *93:9 *778:13 0.00062988
16 *93:15 *122:15 0.000216804
17 *93:17 *105:9 0.0120877
18 *93:17 *127:9 0.00564717
19 *93:17 *127:19 2.11419e-05
20 *93:17 *133:9 0.00062988
21 *93:17 *180:9 0.203835
22 *93:17 *194:9 0
23 *93:17 *244:9 0.0110946
24 *93:17 *369:9 0
25 *93:17 *392:13 0.00262245
26 *93:17 *426:9 0.000834088
27 *93:17 *431:9 0.0146661
28 *93:17 *536:9 0
29 *93:17 *537:9 0
30 *93:21 *225:13 0
31 *93:21 *269:17 0
32 *91:9 *93:9 0
*RES
1 *874:gpio_analog_en[13] *93:7 8.33403 
2 *93:7 *93:9 49.6915 
3 *93:9 *93:15 7.1913 
4 *93:15 *93:17 3157.88 
5 *93:17 *93:19 3.41 
6 *93:19 *93:21 462.823 
7 *93:21 gpio_analog_en[13] 7.11658 
*END

*D_NET *94 0.749719
*CONN
*P gpio_analog_en[14] O
*I *874:gpio_analog_en[14] O *D counter_gpio_config_example
*CAP
1 gpio_analog_en[14] 0.000230079
2 *874:gpio_analog_en[14] 0.00472979
3 *94:17 0.12825
4 *94:15 0.12802
5 *94:13 0.152493
6 *94:11 0.157223
7 gpio_analog_en[14] gpio_dm0[14] 5.28504e-05
8 *94:11 *205:11 0
9 *94:11 *226:7 3.41792e-05
10 *94:11 *226:9 0.000236843
11 *94:11 *293:11 0.000158545
12 *94:11 *368:39 2.87269e-05
13 *94:11 *562:17 0.00133678
14 *94:13 *213:13 0.000667457
15 *94:13 *310:13 0.165081
16 *94:13 *408:13 0
17 *94:17 gpio_dm0[14] 0.0111752
18 *94:17 *270:17 0
*RES
1 *874:gpio_analog_en[14] *94:11 16.0691 
2 *94:11 *94:13 559.347 
3 *94:13 *94:15 3.41 
4 *94:15 *94:17 358.218 
5 *94:17 gpio_analog_en[14] 0.69325 
*END

*D_NET *95 0.922591
*CONN
*P gpio_analog_en[15] O
*I *874:gpio_analog_en[15] O *D counter_gpio_config_example
*CAP
1 gpio_analog_en[15] 3.76613e-05
2 *874:gpio_analog_en[15] 0.00287287
3 *95:13 0.120346
4 *95:11 0.120308
5 *95:9 0.109972
6 *95:7 0.112845
7 gpio_analog_en[15] gpio_dm0[15] 0
8 *95:7 *122:15 0.000384124
9 *95:7 *536:7 0.00029356
10 *95:9 *96:9 0.30146
11 *95:9 *151:9 0
12 *95:9 *174:9 0.0199362
13 *95:9 *184:19 4.98307e-05
14 *95:9 *197:9 0.00725514
15 *95:9 *249:9 0.00881042
16 *95:9 *272:19 0
17 *95:9 *274:9 1.95443e-05
18 *95:9 *283:17 0.00711081
19 *95:9 *325:9 0.020253
20 *95:9 *470:11 0.0159728
21 *95:9 *821:13 0
22 *95:13 gpio_oeb[21] 0.00700218
23 *95:13 gpio_out[15] 0.00182936
24 *95:13 gpio_out[21] 0.000539314
25 *95:13 *99:13 0.00532104
26 *95:13 *102:13 0.0587537
27 *95:13 *449:13 0.00100903
28 *95:13 *454:11 0.000208744
*RES
1 *874:gpio_analog_en[15] *95:7 10.2438 
2 *95:7 *95:9 3732.23 
3 *95:9 *95:11 3.41 
4 *95:11 *95:13 440.699 
5 *95:13 gpio_analog_en[15] 4.07964 
*END

*D_NET *96 1.20606
*CONN
*P gpio_analog_en[16] O
*I *874:gpio_analog_en[16] O *D counter_gpio_config_example
*CAP
1 gpio_analog_en[16] 0.00105275
2 *874:gpio_analog_en[16] 0.00256422
3 *96:13 0.0677837
4 *96:11 0.0667309
5 *96:9 0.0506224
6 *96:7 0.0531866
7 gpio_analog_en[16] gpio_dm0[16] 0
8 *96:7 *183:7 0
9 *96:7 *244:7 0.000395675
10 *96:7 *280:7 0.000537087
11 *96:9 *174:9 0.0252849
12 *96:9 *249:9 0.00245665
13 *96:9 *274:9 0.312514
14 *96:9 *283:17 0.0157242
15 *96:9 *325:9 0.00991764
16 *96:9 *470:11 0.00418837
17 *96:13 *184:21 0
18 *96:13 *272:21 0
19 *96:13 *316:15 0.213931
20 *96:13 *361:13 0.0777102
21 *95:9 *96:9 0.30146
*RES
1 *874:gpio_analog_en[16] *96:7 10.1717 
2 *96:7 *96:9 3848.96 
3 *96:9 *96:11 4.5 
4 *96:11 *96:13 2056.57 
5 *96:13 gpio_analog_en[16] 25.0536 
*END

*D_NET *97 0.568489
*CONN
*P gpio_analog_en[17] O
*I *874:gpio_analog_en[17] O *D counter_gpio_config_example
*CAP
1 gpio_analog_en[17] 0.00218317
2 *874:gpio_analog_en[17] 0.00501611
3 *97:19 0.00218317
4 *97:17 0.0752694
5 *97:15 0.0752694
6 *97:13 0.166458
7 *97:11 0.171474
8 gpio_analog_en[17] gpio_dm0[17] 0
9 gpio_analog_en[17] *449:15 0.00560735
10 *97:11 *109:11 0.000565823
11 *97:11 *255:7 3.6865e-05
12 *97:11 *255:9 0.00110561
13 *97:11 *727:29 0
14 *97:13 *124:13 0.014718
15 *97:13 *263:13 0.0486025
16 *97:17 *98:17 0
17 *97:17 *451:9 0
*RES
1 *874:gpio_analog_en[17] *97:11 17.3095 
2 *97:11 *97:13 3480.88 
3 *97:13 *97:15 3.41 
4 *97:15 *97:17 206.446 
5 *97:17 *97:19 3.41 
6 *97:19 gpio_analog_en[17] 69.8839 
*END

*D_NET *98 0.568552
*CONN
*P gpio_analog_en[18] O
*I *874:gpio_analog_en[18] O *D counter_gpio_config_example
*CAP
1 gpio_analog_en[18] 0.00370547
2 *874:gpio_analog_en[18] 0.00777853
3 *98:19 0.00370547
4 *98:17 0.047953
5 *98:15 0.047953
6 *98:13 0.159672
7 *98:11 0.167451
8 gpio_analog_en[18] gpio_dm0[18] 0
9 gpio_analog_en[18] *450:13 0
10 *98:11 *146:11 0.000203939
11 *98:11 *290:11 0.000140501
12 *98:11 *318:9 0
13 *98:13 *258:13 0.0213311
14 *98:13 *401:13 0.106189
15 *98:13 *430:15 0.002468
16 *97:17 *98:17 0
*RES
1 *874:gpio_analog_en[18] *98:11 22.7145 
2 *98:11 *98:13 3374.62 
3 *98:13 *98:15 3.41 
4 *98:15 *98:17 131.352 
5 *98:17 *98:19 3.41 
6 *98:19 gpio_analog_en[18] 75.9554 
*END

*D_NET *99 0.765192
*CONN
*P gpio_analog_en[19] O
*I *874:gpio_analog_en[19] O *D counter_gpio_config_example
*CAP
1 gpio_analog_en[19] 0.000193463
2 *874:gpio_analog_en[19] 0.0022574
3 *99:13 0.054465
4 *99:11 0.0542715
5 *99:9 0.12099
6 *99:7 0.123248
7 gpio_analog_en[19] gpio_dm0[19] 0
8 *99:7 *141:7 3.53311e-05
9 *99:7 *193:7 0
10 *99:7 *325:7 0.000448921
11 *99:9 *105:17 0.059477
12 *99:9 *115:9 0.000326518
13 *99:9 *123:9 0.0341039
14 *99:9 *189:9 0.280056
15 *99:9 *259:27 2.11419e-05
16 *99:9 *316:11 0
17 *99:9 *369:9 0
18 *99:9 *402:9 0.00106511
19 *99:9 *778:13 0
20 *99:13 gpio_dm1[23] 0.00302672
21 *99:13 gpio_oeb[21] 0.00047417
22 *99:13 gpio_out[21] 0.00835622
23 *99:13 *102:13 0.00494055
24 *99:13 *191:13 0.00722186
25 *91:9 *99:9 0.00489257
26 *95:13 *99:13 0.00532104
*RES
1 *874:gpio_analog_en[19] *99:7 9.01867 
2 *99:7 *99:9 3908.3 
3 *99:9 *99:11 3.41 
4 *99:11 *99:13 169.98 
5 *99:13 gpio_analog_en[19] 7.11536 
*END

*D_NET *100 0.360508
*CONN
*P gpio_analog_en[1] O
*I *874:gpio_analog_en[1] O *D counter_gpio_config_example
*CAP
1 gpio_analog_en[1] 0.00425669
2 *874:gpio_analog_en[1] 0.000191591
3 *100:20 0
4 *100:13 0.0234734
5 *100:11 0.0192167
6 *100:9 0.133583
7 *100:7 0.133775
8 gpio_analog_en[1] gpio_dm0[1] 0.000945659
9 gpio_analog_en[1] gpio_dm1[1] 0.00620538
10 gpio_analog_en[1] *232:18 0
11 *100:7 *401:11 3.14194e-05
12 *100:7 *415:11 4.68544e-05
13 *100:9 *188:9 0
14 *100:9 *356:9 0
15 *100:9 *401:11 0.00152794
16 *100:9 *415:11 0.000452733
17 *100:13 *131:13 0.0361094
18 *100:13 *353:13 0
19 *100:13 *794:13 0.000692218
20 *92:13 *100:13 0
*RES
1 *874:gpio_analog_en[1] *100:7 0.556167 
2 *100:7 *100:9 357.209 
3 *100:9 *100:11 3.41 
4 *100:11 *100:13 80.5862 
5 *100:13 gpio_analog_en[1] 16.7643 
6 gpio_analog_en[1] *100:20 0.0494737 
*END

*D_NET *101 0.689317
*CONN
*P gpio_analog_en[20] O
*I *874:gpio_analog_en[20] O *D counter_gpio_config_example
*CAP
1 gpio_analog_en[20] 0.00098048
2 *874:gpio_analog_en[20] 0.00340983
3 *101:17 0.0196937
4 *101:15 0.0198243
5 *101:9 0.164494
6 *101:7 0.166793
7 gpio_analog_en[20] gpio_dm0[20] 0
8 gpio_analog_en[20] *233:25 0
9 *101:7 *220:7 0.000724219
10 *101:7 *547:7 0
11 *101:9 *259:17 0.000263916
12 *101:9 *329:9 0.112203
13 *101:9 *565:9 0.039548
14 *101:9 *689:13 0
15 *101:9 *691:13 0
16 *101:15 *183:19 0.000336812
17 *101:17 gpio_analog_pol[20] 0.000455125
18 *101:17 *189:13 0.0784025
19 *101:17 *274:13 0.00138844
20 *101:17 *365:13 0.0797687
21 *101:17 *366:13 0.00103041
*RES
1 *874:gpio_analog_en[20] *101:7 12.2617 
2 *101:7 *101:9 3927.79 
3 *101:9 *101:15 27.0886 
4 *101:15 *101:17 132.866 
5 *101:17 gpio_analog_en[20] 22.7493 
*END

*D_NET *102 0.567723
*CONN
*P gpio_analog_en[21] O
*I *874:gpio_analog_en[21] O *D counter_gpio_config_example
*CAP
1 gpio_analog_en[21] 7.55088e-05
2 *874:gpio_analog_en[21] 0.00291524
3 *102:13 0.010168
4 *102:11 0.0100925
5 *102:9 0.182478
6 *102:7 0.185393
7 gpio_analog_en[21] gpio_dm0[21] 0
8 *102:7 *347:7 6.06392e-05
9 *102:7 *411:7 0.00035524
10 *102:7 *569:17 0
11 *102:9 *151:9 0
12 *102:9 *168:9 0.0441603
13 *102:9 *205:21 0.00550458
14 *102:9 *272:19 0
15 *102:9 *349:9 0.0270639
16 *102:9 *821:13 0
17 *102:13 gpio_oeb[21] 0.00471278
18 *102:13 *191:13 0.0310498
19 *95:13 *102:13 0.0587537
20 *99:13 *102:13 0.00494055
*RES
1 *874:gpio_analog_en[21] *102:7 11.1807 
2 *102:7 *102:9 3998.77 
3 *102:9 *102:11 3.41 
4 *102:11 *102:13 91.4636 
5 *102:13 gpio_analog_en[21] 4.68679 
*END

*D_NET *103 0.569503
*CONN
*P gpio_analog_en[22] O
*I *874:gpio_analog_en[22] O *D counter_gpio_config_example
*CAP
1 gpio_analog_en[22] 0.096982
2 *874:gpio_analog_en[22] 0.00182253
3 *103:27 0.0979017
4 *103:17 0.0172722
5 *103:15 0.0163525
6 *103:13 0.0190546
7 *103:11 0.0208771
8 gpio_analog_en[22] gpio_dm0[22] 0
9 gpio_analog_en[22] *675:5 0.253346
10 gpio_analog_en[22] *729:13 0.0157587
11 *103:11 *186:11 0.000451997
12 *103:11 *337:11 0
13 *103:13 *106:13 0.00845635
14 *103:13 *330:13 0.00555354
15 *103:13 *372:13 0.0105879
16 *103:13 *661:25 0
17 *103:13 *738:21 0
18 *103:17 *104:27 0.000111763
19 *103:17 *215:35 0
20 *103:17 *391:21 0
21 *103:17 *742:9 0.00366986
22 *103:27 *142:13 0.00025355
23 *103:27 *233:21 0.000186825
24 *103:27 *235:17 0.000482634
25 *103:27 *271:21 0.000179039
26 *103:27 *542:21 0.000201457
27 *103:27 *568:5 0
28 *103:27 *677:5 0
*RES
1 *874:gpio_analog_en[22] *103:11 8.22907 
2 *103:11 *103:13 492.062 
3 *103:13 *103:15 4.5 
4 *103:15 *103:17 301.589 
5 *103:17 *103:27 19.4295 
6 *103:27 gpio_analog_en[22] 3134.74 
*END

*D_NET *104 0.657942
*CONN
*P gpio_analog_en[23] O
*I *874:gpio_analog_en[23] O *D counter_gpio_config_example
*CAP
1 gpio_analog_en[23] 0.00071436
2 *874:gpio_analog_en[23] 0.00146408
3 *104:29 0.234758
4 *104:27 0.286285
5 *104:13 0.0600692
6 *104:11 0.00929198
7 gpio_analog_en[23] gpio_dm1[23] 0
8 gpio_analog_en[23] *236:17 0
9 *104:11 *254:15 0.000345951
10 *104:11 *364:7 2.75538e-05
11 *104:11 *364:9 0.000248731
12 *104:13 *112:13 0.00189304
13 *104:13 *114:19 0.00240195
14 *104:13 *117:13 0.000274226
15 *104:13 *278:13 0.0168811
16 *104:13 *367:15 0.000673518
17 *104:13 *367:17 0.00163845
18 *104:13 *367:23 1.19374e-05
19 *104:13 *705:41 0
20 *104:27 *114:19 6.14836e-06
21 *104:27 *117:17 0.000163256
22 *104:27 *147:23 0.0026674
23 *104:27 *160:17 0.000114414
24 *104:27 *190:23 0.00111571
25 *104:27 *215:33 0.0078388
26 *104:27 *233:19 0.00214594
27 *104:27 *235:17 0.00208748
28 *104:27 *271:19 0.00220354
29 *104:27 *323:15 0.00275264
30 *104:27 *367:25 0.00220344
31 *104:27 *368:55 0.000120196
32 *104:27 *381:17 0.000330472
33 *104:27 *542:17 0.00132742
34 *104:27 *544:17 0.00452294
35 *104:27 *742:9 0.00270951
36 *104:27 *781:17 0.0028722
37 *104:27 *783:13 0.00271051
38 *104:27 *829:16 0.00296021
39 *103:17 *104:27 0.000111763
*RES
1 *874:gpio_analog_en[23] *104:11 7.2922 
2 *104:11 *104:13 258.768 
3 *104:13 *104:27 21.311 
4 *104:27 *104:29 548.587 
5 *104:29 gpio_analog_en[23] 18.9847 
*END

*D_NET *105 0.779105
*CONN
*P gpio_analog_en[24] O
*I *874:gpio_analog_en[24] O *D counter_gpio_config_example
*CAP
1 gpio_analog_en[24] 0.0101953
2 *874:gpio_analog_en[24] 0.00206267
3 *105:17 0.184711
4 *105:15 0.174884
5 *105:9 0.00656662
6 *105:7 0.00826101
7 gpio_analog_en[24] gpio_dm0[24] 0.00045732
8 gpio_analog_en[24] *237:13 0
9 gpio_analog_en[24] *402:13 0
10 *105:7 *392:11 0
11 *105:7 *407:7 0.000333036
12 *105:7 *428:9 4.43731e-06
13 *105:9 *122:17 0.0193601
14 *105:9 *127:9 0.000679838
15 *105:9 *133:9 0.00126081
16 *105:9 *180:9 0.00211424
17 *105:9 *244:9 0.000577097
18 *105:9 *426:9 0.000161366
19 *105:9 *431:9 0.00147726
20 *105:9 *778:13 0.00480456
21 *105:15 gpio_ib_mode_sel[36] 0
22 *105:17 *115:9 0.00294911
23 *105:17 *116:9 0.0343309
24 *105:17 *154:17 0
25 *105:17 *189:9 0.0541076
26 *105:17 *194:9 0.00833495
27 *105:17 *244:9 0.0330686
28 *105:17 *283:17 0
29 *105:17 *316:11 0.0180202
30 *105:17 *369:9 0.0173748
31 *105:17 *377:17 0
32 *105:17 *402:9 0.0635439
33 *105:17 *779:18 0.00213297
34 *91:9 *105:17 0.0187998
35 *91:17 *105:17 0.0369667
36 *93:17 *105:9 0.0120877
37 *99:9 *105:17 0.059477
*RES
1 *874:gpio_analog_en[24] *105:7 8.15387 
2 *105:7 *105:9 348.018 
3 *105:9 *105:15 7.6237 
4 *105:15 *105:17 577.351 
5 *105:17 gpio_analog_en[24] 29.7512 
*END

*D_NET *106 0.387242
*CONN
*P gpio_analog_en[25] O
*I *874:gpio_analog_en[25] O *D counter_gpio_config_example
*CAP
1 gpio_analog_en[25] 7.30199e-05
2 *874:gpio_analog_en[25] 0.0019042
3 *106:25 0.0503662
4 *106:23 0.0502932
5 *106:21 0.0399967
6 *106:19 0.0402973
7 *106:13 0.0729184
8 *106:11 0.074522
9 *106:11 *148:11 0.000381675
10 *106:11 *531:11 0.000383304
11 *106:13 *278:21 0
12 *106:13 *330:13 0.0130973
13 *106:13 *367:17 0
14 *106:13 *367:23 0
15 *106:13 *661:21 0
16 *106:13 *661:25 0
17 *106:19 *330:31 0.00039347
18 *106:21 *149:21 0.0340982
19 *106:21 *330:31 6.02614e-05
20 *106:25 gpio_analog_pol[25] 0
21 *106:25 gpio_dm0[25] 0
22 *106:25 *238:33 0
23 *106:25 *282:33 0
24 *103:13 *106:13 0.00845635
*RES
1 *874:gpio_analog_en[25] *106:11 8.157 
2 *106:11 *106:13 1554.41 
3 *106:13 *106:19 7.6237 
4 *106:19 *106:21 139.499 
5 *106:21 *106:23 3.41 
6 *106:23 *106:25 130.536 
7 *106:25 gpio_analog_en[25] 0.245183 
*END

*D_NET *107 0.543721
*CONN
*P gpio_analog_en[26] O
*I *874:gpio_analog_en[26] O *D counter_gpio_config_example
*CAP
1 gpio_analog_en[26] 0.00742178
2 *874:gpio_analog_en[26] 0.0048483
3 *107:9 0.0741229
4 *107:7 0.0715494
5 gpio_analog_en[26] gpio_dm0[26] 0.000446059
6 gpio_analog_en[26] gpio_dm1[26] 0.000649426
7 gpio_analog_en[26] *239:25 0.00443554
8 gpio_analog_en[26] *413:17 0.000365668
9 *107:7 gpio_oeb[37] 0
10 *107:7 *304:7 0.00097297
11 *107:7 *373:7 0
12 *107:7 *434:7 5.65691e-05
13 *107:9 *178:17 0.00265787
14 *107:9 *193:9 0.00726115
15 *107:9 *193:17 0.00168696
16 *107:9 *241:19 0.00922469
17 *107:9 *268:17 0.00640916
18 *107:9 *284:9 0.192985
19 *107:9 *374:9 0.158628
*RES
1 *874:gpio_analog_en[26] *107:7 14.82 
2 *107:7 *107:9 445.356 
3 *107:9 gpio_analog_en[26] 24.5561 
*END

*D_NET *108 0.45062
*CONN
*P gpio_analog_en[27] O
*I *874:gpio_analog_en[27] O *D counter_gpio_config_example
*CAP
1 gpio_analog_en[27] 0.001124
2 *874:gpio_analog_en[27] 0.00130594
3 *108:25 0.034648
4 *108:23 0.033524
5 *108:21 0.0443027
6 *108:19 0.0444051
7 *108:13 0.073126
8 *108:11 0.0743295
9 gpio_analog_en[27] gpio_dm0[27] 0.00164116
10 gpio_analog_en[27] gpio_dm1[27] 0
11 *108:11 *166:7 4.28713e-05
12 *108:11 *166:9 0.000240465
13 *108:11 *170:11 0.000282797
14 *108:13 *112:13 0.0510087
15 *108:13 *278:13 0.0150273
16 *108:13 *672:13 0
17 *108:13 *694:13 0
18 *108:13 *787:15 0.00216052
19 *108:19 *112:31 0.000177173
20 *108:19 *156:17 0
21 *108:21 *112:31 6.02614e-05
22 *108:25 gpio_analog_pol[27] 0
23 *108:25 gpio_dm0[27] 0.0732137
24 *108:25 *456:15 0
*RES
1 *874:gpio_analog_en[27] *108:11 7.076 
2 *108:11 *108:13 1755.38 
3 *108:13 *108:19 7.11923 
4 *108:19 *108:21 101.68 
5 *108:21 *108:23 3.41 
6 *108:23 *108:25 126.272 
7 *108:25 gpio_analog_en[27] 11.3122 
*END

*D_NET *109 0.533697
*CONN
*P gpio_analog_en[28] O
*I *874:gpio_analog_en[28] O *D counter_gpio_config_example
*CAP
1 gpio_analog_en[28] 0.000106614
2 *874:gpio_analog_en[28] 0.00196625
3 *109:17 0.0523928
4 *109:15 0.0522862
5 *109:13 0.0566647
6 *109:11 0.058631
7 *109:11 *169:11 0
8 *109:11 *727:29 0.00373889
9 *109:13 *153:13 0.164644
10 *109:13 *156:13 0
11 *109:13 *326:13 0.00138442
12 *109:13 *326:21 0.137571
13 *109:13 *357:17 0
14 *109:13 *531:13 0
15 *109:13 *533:13 0
16 *109:13 *533:21 0.000623032
17 *109:13 *544:13 0.00204526
18 *109:17 gpio_dm0[28] 0.00107648
19 *109:17 gpio_dm1[28] 0
20 *109:17 *153:17 0
21 *97:11 *109:11 0.000565823
*RES
1 *874:gpio_analog_en[28] *109:11 10.4992 
2 *109:11 *109:13 363.326 
3 *109:13 *109:15 3.41 
4 *109:15 *109:17 132.122 
5 *109:17 gpio_analog_en[28] 0.357983 
*END

*D_NET *110 0.406996
*CONN
*P gpio_analog_en[29] O
*I *874:gpio_analog_en[29] O *D counter_gpio_config_example
*CAP
1 gpio_analog_en[29] 5.48233e-05
2 *874:gpio_analog_en[29] 0
3 *110:10 0.0331253
4 *110:8 0.0330704
5 *110:6 0.0389381
6 *110:4 0.0389381
7 *110:6 *237:9 0.000460455
8 *110:6 *286:21 0.121531
9 *110:6 *372:23 0.000453691
10 *110:6 *372:25 0.0632577
11 *110:6 *553:16 0.000304711
12 *110:10 gpio_dm0[29] 0
13 *110:10 gpio_dm1[29] 0.00022205
14 *110:10 *286:25 0.0766397
*RES
1 *874:gpio_analog_en[29] *110:4 3.41 
2 *110:4 *110:6 262.385 
3 *110:6 *110:8 3.41 
4 *110:8 *110:10 125.203 
5 *110:10 gpio_analog_en[29] 0.184083 
*END

*D_NET *111 0.470485
*CONN
*P gpio_analog_en[2] O
*I *874:gpio_analog_en[2] O *D counter_gpio_config_example
*CAP
1 gpio_analog_en[2] 0.0133882
2 *874:gpio_analog_en[2] 4.9608e-05
3 *111:15 0.0328892
4 *111:13 0.221805
5 *111:9 0.202353
6 gpio_analog_en[2] gpio_dm0[2] 0
7 gpio_analog_en[2] gpio_inp_dis[2] 0
8 gpio_analog_en[2] *287:17 0
*RES
1 *874:gpio_analog_en[2] *111:9 3.92003 
2 *111:9 *111:13 49.4563 
3 *111:13 *111:15 56.4031 
4 *111:15 gpio_analog_en[2] 37.0252 
*END

*D_NET *112 0.332165
*CONN
*P gpio_analog_en[30] O
*I *874:gpio_analog_en[30] O *D counter_gpio_config_example
*CAP
1 gpio_analog_en[30] 0.00132903
2 *874:gpio_analog_en[30] 0.00153797
3 *112:33 0.0476272
4 *112:31 0.0500625
5 *112:21 0.0592797
6 *112:19 0.0556241
7 *112:13 0.0198183
8 *112:11 0.0212475
9 gpio_analog_en[30] gpio_dm0[30] 0.000498978
10 gpio_analog_en[30] gpio_dm1[30] 0
11 gpio_analog_en[30] *462:15 0.000201194
12 *112:11 *211:11 0.000260062
13 *112:11 *267:11 0.000260378
14 *112:13 *278:13 0.006019
15 *112:19 *114:29 0
16 *112:33 gpio_analog_pol[30] 0.000837767
17 *112:33 gpio_dm0[30] 0.0144225
18 *112:33 *156:17 0
19 *104:13 *112:13 0.00189304
20 *108:13 *112:13 0.0510087
21 *108:19 *112:31 0.000177173
22 *108:21 *112:31 6.02614e-05
*RES
1 *874:gpio_analog_en[30] *112:11 7.14807 
2 *112:11 *112:13 638.839 
3 *112:13 *112:19 7.04717 
4 *112:19 *112:21 127.655 
5 *112:21 *112:31 12.0016 
6 *112:31 *112:33 123.749 
7 *112:33 gpio_analog_en[30] 12.4983 
*END

*D_NET *113 0.23116
*CONN
*P gpio_analog_en[31] O
*I *874:gpio_analog_en[31] O *D counter_gpio_config_example
*CAP
1 gpio_analog_en[31] 0.00010848
2 *874:gpio_analog_en[31] 0.00111932
3 *113:17 0.051724
4 *113:15 0.0516155
5 *113:13 0.0535599
6 *113:11 0.0546793
7 *113:11 *308:7 3.0855e-05
8 *113:11 *308:9 0.000145959
9 *113:11 *397:7 0
10 *113:11 *397:9 0
11 *113:13 *290:13 0
12 *113:13 *292:13 0.0180145
13 *113:13 *293:13 0
14 *113:13 *381:13 0
15 *113:13 *557:13 0
16 *113:17 gpio_analog_pol[31] 0
17 *113:17 gpio_dm0[31] 0.000161917
18 *113:17 gpio_dm1[31] 0
19 *113:17 *810:17 0
*RES
1 *874:gpio_analog_en[31] *113:11 5.995 
2 *113:11 *113:13 1173.12 
3 *113:13 *113:15 3.41 
4 *113:15 *113:17 127.618 
5 *113:17 gpio_analog_en[31] 0.36425 
*END

*D_NET *114 0.238641
*CONN
*P gpio_analog_en[32] O
*I *874:gpio_analog_en[32] O *D counter_gpio_config_example
*CAP
1 gpio_analog_en[32] 0.00599838
2 *874:gpio_analog_en[32] 0.00217856
3 *114:29 0.0383056
4 *114:27 0.0359927
5 *114:21 0.0399568
6 *114:19 0.0384499
7 gpio_analog_en[32] gpio_dm0[32] 0.000431944
8 gpio_analog_en[32] gpio_dm1[32] 0
9 gpio_analog_en[32] *246:53 0
10 gpio_analog_en[32] *413:17 0.000365668
11 *114:19 *117:13 0.000185417
12 *114:19 *117:17 1.1257e-05
13 *114:19 *185:11 0.000311795
14 *114:19 *346:11 0.000449161
15 *114:19 *367:17 0.00192286
16 *114:19 *367:23 0.000253412
17 *114:19 *742:9 1.75318e-05
18 *114:29 *246:51 0.00014264
19 *114:29 *246:53 0.0712589
20 *104:13 *114:19 0.00240195
21 *104:27 *114:19 6.14836e-06
22 *112:19 *114:29 0
*RES
1 *874:gpio_analog_en[32] *114:19 44.7494 
2 *114:19 *114:21 82.2155 
3 *114:21 *114:27 11.3937 
4 *114:27 *114:29 116.146 
5 *114:29 gpio_analog_en[32] 13.9143 
*END

*D_NET *115 0.214273
*CONN
*P gpio_analog_en[33] O
*I *874:gpio_analog_en[33] O *D counter_gpio_config_example
*CAP
1 gpio_analog_en[33] 0.00880625
2 *874:gpio_analog_en[33] 0.00268985
3 *115:9 0.0390399
4 *115:7 0.0329235
5 gpio_analog_en[33] gpio_analog_pol[33] 0
6 gpio_analog_en[33] gpio_dm0[33] 0.0109067
7 gpio_analog_en[33] gpio_dm1[33] 0
8 gpio_analog_en[33] *462:15 0.000152462
9 gpio_analog_en[33] *555:17 0
10 gpio_analog_en[33] *775:9 0.000822607
11 *115:7 *159:7 0.000439001
12 *115:7 *311:7 0.000175956
13 *115:7 *317:7 0
14 *115:9 *154:9 0.00631017
15 *115:9 *204:9 0.051711
16 *115:9 *283:9 0.0108373
17 *115:9 *309:9 0.00187002
18 *115:9 *377:9 0.00865325
19 *115:9 *377:17 0.00890944
20 *115:9 *402:9 0.000106304
21 *115:9 *779:18 0.0178722
22 *91:9 *115:9 0.00127916
23 *91:17 *115:9 0.0074921
24 *99:9 *115:9 0.000326518
25 *105:17 *115:9 0.00294911
*RES
1 *874:gpio_analog_en[33] *115:7 9.4871 
2 *115:7 *115:9 147.915 
3 *115:9 gpio_analog_en[33] 38.0632 
*END

*D_NET *116 0.13949
*CONN
*P gpio_analog_en[34] O
*I *874:gpio_analog_en[34] O *D counter_gpio_config_example
*CAP
1 gpio_analog_en[34] 0.0115169
2 *874:gpio_analog_en[34] 0.00235889
3 *116:9 0.0306065
4 *116:7 0.0214485
5 gpio_analog_en[34] gpio_dm0[34] 0.00104278
6 gpio_analog_en[34] *160:21 0
7 gpio_analog_en[34] *292:17 0
8 *116:7 *122:15 0.000135304
9 *116:7 *159:7 0.000437007
10 *116:7 *550:7 0
11 *116:9 *244:9 0.0277205
12 *91:9 *116:9 0.0098931
13 *105:17 *116:9 0.0343309
*RES
1 *874:gpio_analog_en[34] *116:7 8.76643 
2 *116:7 *116:9 115.529 
3 *116:9 gpio_analog_en[34] 29.9016 
*END

*D_NET *117 0.225638
*CONN
*P gpio_analog_en[35] O
*I *874:gpio_analog_en[35] O *D counter_gpio_config_example
*CAP
1 gpio_analog_en[35] 0.0138211
2 *874:gpio_analog_en[35] 0.0219802
3 *117:17 0.0328276
4 *117:15 0.0190065
5 *117:13 0.0219802
6 gpio_analog_en[35] gpio_dm0[35] 0
7 gpio_analog_en[35] gpio_dm1[35] 0
8 gpio_analog_en[35] *174:9 0.00430994
9 gpio_analog_en[35] *204:9 0.00120975
10 gpio_analog_en[35] *274:9 0.000740426
11 gpio_analog_en[35] *377:17 0.000365949
12 *117:13 *227:11 0.000298966
13 *117:13 *367:17 0.000165754
14 *117:13 *410:13 0.000165754
15 *117:13 *544:11 0.000292541
16 *117:17 *148:17 0.000111763
17 *117:17 *215:33 0.00401609
18 *117:17 *215:35 0.00398338
19 *117:17 *234:17 0.00137587
20 *117:17 *240:19 0
21 *117:17 *293:17 0.000199587
22 *117:17 *338:17 2.24813e-05
23 *117:17 *347:21 0.000101825
24 *117:17 *381:17 0.0342793
25 *117:17 *391:19 4.65519e-05
26 *117:17 *391:21 0.000103646
27 *117:17 *427:17 0.0630745
28 *117:17 *557:17 6.59103e-06
29 *117:17 *742:9 0
30 *117:17 *829:16 0.000518005
31 *104:13 *117:13 0.000274226
32 *104:27 *117:17 0.000163256
33 *114:19 *117:13 0.000185417
34 *114:19 *117:17 1.1257e-05
*RES
1 *874:gpio_analog_en[35] *117:13 48.1086 
2 *117:13 *117:15 3.41 
3 *117:15 *117:17 104.255 
4 *117:17 gpio_analog_en[35] 42.2024 
*END

*D_NET *118 0.163754
*CONN
*P gpio_analog_en[36] O
*I *874:gpio_analog_en[36] O *D counter_gpio_config_example
*CAP
1 gpio_analog_en[36] 0.000700468
2 *874:gpio_analog_en[36] 0.0766861
3 *118:20 0.00343275
4 *118:18 0.0794184
5 gpio_analog_en[36] gpio_analog_pol[36] 0
6 gpio_analog_en[36] gpio_dm0[36] 0.000240946
7 *118:18 *329:7 0.000115959
8 *118:20 *427:21 0.00315959
*RES
1 *874:gpio_analog_en[36] *118:18 33.176 
2 *118:18 *118:20 74.1964 
3 *118:20 gpio_analog_en[36] 4.93358 
*END

*D_NET *119 0.0725632
*CONN
*P gpio_analog_en[37] O
*I *874:gpio_analog_en[37] O *D counter_gpio_config_example
*CAP
1 gpio_analog_en[37] 0.00466413
2 *874:gpio_analog_en[37] 0.00723283
3 *119:11 0.0163307
4 *119:7 0.0188994
5 gpio_analog_en[37] gpio_dm0[37] 0.00015431
6 gpio_analog_en[37] gpio_inp_dis[37] 0.00604707
7 *119:7 *212:7 0
8 *119:7 *225:7 0.000138123
9 *119:7 *268:15 0.00112536
10 *119:11 *159:9 0.00624965
11 *119:11 *163:9 0
12 *119:11 *202:9 0.00791652
13 *119:11 *365:9 0.00380518
*RES
1 *874:gpio_analog_en[37] *119:7 22.1708 
2 *119:7 *119:11 49.3729 
3 *119:11 gpio_analog_en[37] 13.0934 
*END

*D_NET *120 0.100151
*CONN
*P gpio_analog_en[38] O
*I *874:gpio_analog_en[38] O *D counter_gpio_config_example
*CAP
1 gpio_analog_en[38] 0.00290626
2 *874:gpio_analog_en[38] 0.000676087
3 *120:10 0.0430329
4 *120:8 0.0408028
5 gpio_analog_en[38] gpio_dm0[38] 0
6 gpio_analog_en[38] *431:13 0.0047038
7 gpio_analog_en[38] *693:9 0
8 *120:8 *200:13 2.97834e-05
9 *120:8 *208:30 0.000189486
10 *120:8 *237:9 0.0007093
11 *120:10 *160:15 0.000441721
12 *120:10 *200:11 0.00120452
13 *120:10 *200:13 0.00210802
14 *120:10 *208:30 0.00271842
15 *120:10 *208:32 0
16 *120:10 *232:16 7.78926e-05
17 *120:10 *252:40 0.000131319
18 *120:10 *252:42 0
19 *120:10 *295:20 4.00874e-05
20 *120:10 *558:18 0.000378626
*RES
1 *874:gpio_analog_en[38] *120:8 6.82533 
2 *120:8 *120:10 116.134 
3 *120:10 gpio_analog_en[38] 31.7998 
*END

*D_NET *121 0.191533
*CONN
*P gpio_analog_en[39] O
*I *874:gpio_analog_en[39] O *D counter_gpio_config_example
*CAP
1 gpio_analog_en[39] 0.00212241
2 *874:gpio_analog_en[39] 0.00518713
3 *121:17 0.0185481
4 *121:15 0.0164257
5 *121:13 0.0243332
6 *121:11 0.0295203
7 gpio_analog_en[39] *253:25 0
8 *121:11 *153:11 0
9 *121:11 *246:27 0.000544134
10 *121:11 *282:11 0
11 *121:13 *213:13 0.0534501
12 *121:13 *310:13 0.00122659
13 *121:17 *476:11 0
14 *121:17 *830:9 0.0401756
*RES
1 *874:gpio_analog_en[39] *121:11 16.3005 
2 *121:11 *121:13 728.696 
3 *121:13 *121:15 3.41 
4 *121:15 *121:17 64.5467 
5 *121:17 gpio_analog_en[39] 45.2404 
*END

*D_NET *122 0.627055
*CONN
*P gpio_analog_en[3] O
*I *874:gpio_analog_en[3] O *D counter_gpio_config_example
*CAP
1 gpio_analog_en[3] 5.71218e-05
2 *874:gpio_analog_en[3] 0.0042453
3 *122:195 0.0993777
4 *122:193 0.126855
5 *122:131 0.0671668
6 *122:17 0.044058
7 *122:15 0.00867083
8 *122:15 *244:9 0.00483202
9 *122:15 *324:7 0.000197245
10 *122:15 *538:7 0
11 *122:15 *550:7 0
12 *122:17 *180:9 0.00281555
13 *122:17 *194:9 0.000843641
14 *122:17 *244:9 0.00106662
15 *122:17 *426:9 0.000994543
16 *122:17 *778:13 0.02291
17 *122:131 gpio_dm1[36] 0.000260336
18 *122:131 *223:9 0.000111082
19 *122:131 *224:9 0.000102658
20 *122:131 *391:9 0.000142608
21 *122:131 *534:28 0.000271058
22 *122:131 *662:27 0
23 *122:131 *728:19 0.000123163
24 *122:131 *762:13 0.000802227
25 *122:131 *805:19 0.000123163
26 *122:131 *817:19 0.000271058
27 *122:193 gpio_dm1[36] 0.000130168
28 *122:193 *160:17 0.000225113
29 *122:193 *368:39 0.000354946
30 *122:193 *481:25 0.000236341
31 *122:193 *703:139 0.000112686
32 *122:193 *801:13 0.000821112
33 *122:193 *805:19 0
34 *122:193 *824:10 2.28068e-05
35 *122:195 gpio_dm0[3] 0.000574739
36 *122:195 *124:11 0.00779625
37 *122:195 *166:17 0
38 *122:195 *205:11 0.000557012
39 *122:195 *227:11 0
40 *122:195 *254:17 0.20818
41 *91:9 *122:15 0.00164976
42 *93:15 *122:15 0.000216804
43 *95:7 *122:15 0.000384124
44 *105:9 *122:17 0.0193601
45 *116:7 *122:15 0.000135304
*RES
1 *874:gpio_analog_en[3] *122:15 26.3729 
2 *122:15 *122:17 302.482 
3 *122:17 *122:131 49.5121 
4 *122:131 *122:193 25.5658 
5 *122:193 *122:195 369.94 
6 *122:195 gpio_analog_en[3] 0.17625 
*END

*D_NET *123 0.347503
*CONN
*P gpio_analog_en[40] O
*I *874:gpio_analog_en[40] O *D counter_gpio_config_example
*CAP
1 gpio_analog_en[40] 0.000232962
2 *874:gpio_analog_en[40] 0.00250278
3 *123:21 0.0298349
4 *123:19 0.0298279
5 *123:13 0.0124925
6 *123:11 0.0122665
7 *123:9 0.0248635
8 *123:7 0.0273663
9 gpio_analog_en[40] *255:17 0.000103274
10 *123:7 *197:7 0
11 *123:7 *224:7 0.000139827
12 *123:7 *361:7 0.00046464
13 *123:9 *283:9 0.00993975
14 *123:9 *309:9 0.0039432
15 *123:9 *377:9 0
16 *123:9 *402:9 0.00490865
17 *123:9 *460:21 7.59861e-05
18 *123:9 *469:21 3.00538e-05
19 *123:9 *471:11 0
20 *123:9 *779:18 0.000791081
21 *123:13 *212:13 0.0338844
22 *123:13 *300:13 0.000269199
23 *123:21 *300:21 0.0977143
24 *123:21 *340:17 0.0047497
25 *123:21 *433:22 0
26 *123:21 *739:9 0.0167878
27 *91:9 *123:9 0.00020996
28 *99:9 *123:9 0.0341039
*RES
1 *874:gpio_analog_en[40] *123:7 9.09073 
2 *123:7 *123:9 765.125 
3 *123:9 *123:11 3.41 
4 *123:11 *123:13 57.4121 
5 *123:13 *123:19 11.2225 
6 *123:19 *123:21 924.643 
7 *123:21 gpio_analog_en[40] 9.5 
*END

*D_NET *124 0.300384
*CONN
*P gpio_analog_en[41] O
*I *874:gpio_analog_en[41] O *D counter_gpio_config_example
*CAP
1 gpio_analog_en[41] 0.000175753
2 *874:gpio_analog_en[41] 0.00388441
3 *124:21 0.00191096
4 *124:19 0.00173521
5 *124:17 0.0383922
6 *124:15 0.0383922
7 *124:13 0.0381417
8 *124:11 0.0420261
9 *124:11 *205:11 7.72146e-05
10 *124:11 *227:11 0.0011095
11 *124:13 *263:13 0.00750846
12 *124:13 *441:11 0.00806731
13 *124:17 *566:10 0.0926678
14 *124:17 *785:9 0
15 *124:21 gpio_dm0[41] 0
16 *124:21 gpio_dm1[41] 0
17 *124:21 *256:13 0.00378058
18 *97:13 *124:13 0.014718
19 *122:195 *124:11 0.00779625
*RES
1 *874:gpio_analog_en[41] *124:11 17.3815 
2 *124:11 *124:13 834.946 
3 *124:13 *124:15 3.41 
4 *124:15 *124:17 149.081 
5 *124:17 *124:19 3.41 
6 *124:19 *124:21 51.7321 
7 *124:21 gpio_analog_en[41] 3.84821 
*END

*D_NET *125 0.400022
*CONN
*P gpio_analog_en[42] O
*I *874:gpio_analog_en[42] O *D counter_gpio_config_example
*CAP
1 gpio_analog_en[42] 0.000170929
2 *874:gpio_analog_en[42] 0.00198403
3 *125:21 0.0594169
4 *125:19 0.0602277
5 *125:9 0.0155222
6 *125:7 0.0165245
7 *125:7 *161:7 0.000349696
8 *125:7 *389:7 4.17966e-05
9 *125:9 *133:9 0.00204436
10 *125:9 *431:9 0.0359089
11 *125:9 *778:13 0
12 *125:19 *164:9 0
13 *125:19 *164:13 0.000144997
14 *125:19 *168:19 0.0023149
15 *125:19 *296:9 0
16 *125:19 *300:13 8.73551e-05
17 *125:19 *344:19 1.90555e-05
18 *125:21 *168:21 0.155396
19 *125:21 *212:13 0.0267545
20 *125:21 *296:13 0.0221716
21 *125:21 *344:35 0.000943124
22 *125:21 *433:22 0
*RES
1 *874:gpio_analog_en[42] *125:7 8.00973 
2 *125:7 *125:9 454.268 
3 *125:9 *125:19 17.5163 
4 *125:19 *125:21 1713.62 
5 *125:21 gpio_analog_en[42] 8 
*END

*D_NET *126 0.295135
*CONN
*P gpio_analog_en[43] O
*I *874:gpio_analog_en[43] O *D counter_gpio_config_example
*CAP
1 gpio_analog_en[43] 6.15062e-05
2 *874:gpio_analog_en[43] 0.000535733
3 *126:21 0.00266182
4 *126:19 0.00260031
5 *126:17 0.0754401
6 *126:15 0.0754401
7 *126:13 0.0163201
8 *126:11 0.0168558
9 *126:11 *222:7 5.35429e-05
10 *126:11 *222:9 0
11 *126:11 *375:13 0.000102188
12 *126:11 *429:7 4.72078e-05
13 *126:11 *429:9 0.000265484
14 *126:13 *463:11 0.0247285
15 *126:17 *432:19 0
16 *126:17 *563:15 0.075573
17 *126:21 gpio_dm0[43] 0
18 *126:21 *258:21 0.00444912
*RES
1 *874:gpio_analog_en[43] *126:11 5.43926 
2 *126:11 *126:13 439.696 
3 *126:13 *126:15 3.41 
4 *126:15 *126:17 247.092 
5 *126:17 *126:19 3.41 
6 *126:19 *126:21 70.7321 
7 *126:21 gpio_analog_en[43] 1.29464 
*END

*D_NET *127 0.372231
*CONN
*P gpio_analog_en[4] O
*I *874:gpio_analog_en[4] O *D counter_gpio_config_example
*CAP
1 gpio_analog_en[4] 0.00216418
2 *874:gpio_analog_en[4] 0.00199218
3 *127:21 0.142676
4 *127:19 0.140568
5 *127:9 0.0130177
6 *127:7 0.014954
7 gpio_analog_en[4] gpio_analog_pol[4] 5.75583e-06
8 gpio_analog_en[4] gpio_dm0[4] 0.00142981
9 gpio_analog_en[4] gpio_dm1[4] 0
10 gpio_analog_en[4] *833:13 0
11 *127:7 *416:7 0.000371696
12 *127:7 *552:7 0.000320821
13 *127:9 *180:9 0.00498414
14 *127:9 *244:9 0.00825909
15 *127:9 *392:13 0.0158632
16 *127:9 *426:9 0.00702148
17 *127:19 *425:17 4.57582e-05
18 *127:19 *557:17 9.23367e-05
19 *127:21 *347:21 0
20 *127:21 *557:17 0.0121164
21 *127:21 *562:9 0
22 *127:21 *804:9 0
23 *93:17 *127:9 0.00564717
24 *93:17 *127:19 2.11419e-05
25 *105:9 *127:9 0.000679838
*RES
1 *874:gpio_analog_en[4] *127:7 8.04577 
2 *127:7 *127:9 66.0977 
3 *127:9 *127:19 11.7519 
4 *127:19 *127:21 2654.98 
5 *127:21 gpio_analog_en[4] 30.4055 
*END

*D_NET *128 0.489999
*CONN
*P gpio_analog_en[5] O
*I *874:gpio_analog_en[5] O *D counter_gpio_config_example
*CAP
1 gpio_analog_en[5] 0.00269025
2 *874:gpio_analog_en[5] 0.00288715
3 *128:21 0.0898713
4 *128:19 0.0871811
5 *128:17 0.0181355
6 *128:15 0.0210226
7 gpio_analog_en[5] gpio_dm0[5] 0.000392882
8 gpio_analog_en[5] *172:17 0
9 gpio_analog_en[5] *260:13 0.000967886
10 *128:15 gpio_slow_sel[3] 0.00146357
11 *128:15 *341:7 3.64239e-05
12 *128:15 *341:9 9.11651e-05
13 *128:15 *357:17 0.000290045
14 *128:15 *544:11 0.00107807
15 *128:17 *243:15 0.00332364
16 *128:17 *346:13 0.000365629
17 *128:17 *376:13 0.0334679
18 *128:17 *749:25 0.00199903
19 *128:21 *172:17 0
20 *128:21 *260:13 0.224735
*RES
1 *874:gpio_analog_en[5] *128:15 12.1034 
2 *128:15 *128:17 72.3831 
3 *128:17 *128:19 3.41 
4 *128:19 *128:21 356.345 
5 *128:21 gpio_analog_en[5] 6.84712 
*END

*D_NET *129 0.626684
*CONN
*P gpio_analog_en[6] O
*I *874:gpio_analog_en[6] O *D counter_gpio_config_example
*CAP
1 gpio_analog_en[6] 6.11838e-05
2 *874:gpio_analog_en[6] 0.000149913
3 *129:13 0.179567
4 *129:11 0.179505
5 *129:9 0.0491292
6 *129:7 0.0492791
7 *129:7 *291:7 3.93829e-05
8 *129:7 *328:7 3.78511e-05
9 *129:9 *132:9 0.0611594
10 *129:9 *135:11 0.000365629
11 *129:9 *139:9 0.000990154
12 *129:9 *141:9 0.00581294
13 *129:9 *144:8 0
14 *129:9 *266:17 0.0124236
15 *129:9 *298:16 3.43688e-05
16 *129:9 *301:9 0.00167357
17 *129:9 *324:17 0.00289776
18 *129:9 *342:19 0.00175295
19 *129:9 *347:9 0.0646523
20 *129:9 *391:9 0.000141362
21 *129:9 *433:8 0.00129528
22 *129:9 *433:10 0
23 *129:9 *532:17 0.00342743
24 *129:9 *532:19 0.00293873
25 *129:9 *664:16 0.00282242
26 *129:9 *665:20 0.00180456
27 *129:13 gpio_dm0[6] 0.00472277
28 *129:13 *173:13 0
*RES
1 *874:gpio_analog_en[6] *129:7 3.8659 
2 *129:7 *129:9 207.254 
3 *129:9 *129:11 3.41 
4 *129:11 *129:13 465.068 
5 *129:13 gpio_analog_en[6] 0.188783 
*END

*D_NET *130 0.588555
*CONN
*P gpio_analog_en[7] O
*I *874:gpio_analog_en[7] O *D counter_gpio_config_example
*CAP
1 gpio_analog_en[7] 0.00329282
2 *874:gpio_analog_en[7] 0.00683473
3 *130:17 0.135398
4 *130:15 0.132105
5 *130:13 0.114359
6 *130:11 0.121193
7 gpio_analog_en[7] gpio_dm0[7] 0
8 gpio_analog_en[7] *174:13 0
9 *130:11 *222:9 0
10 *130:11 *310:11 0.00108894
11 *130:11 *549:11 0.000133733
12 *130:11 *716:27 0.00122352
13 *130:13 *177:13 0
14 *130:13 *187:13 0.0250202
15 *130:13 *390:13 0.00709379
16 *130:13 *401:13 0
17 *130:13 *409:13 0.0408115
18 *130:13 *430:15 0
19 *130:17 *306:13 0
*RES
1 *874:gpio_analog_en[7] *130:11 23.7594 
2 *130:11 *130:13 308.781 
3 *130:13 *130:15 3.41 
4 *130:15 *130:17 344.382 
5 *130:17 gpio_analog_en[7] 7.19805 
*END

*D_NET *131 0.603623
*CONN
*P gpio_analog_en[8] O
*I *874:gpio_analog_en[8] O *D counter_gpio_config_example
*CAP
1 gpio_analog_en[8] 0.00452706
2 *874:gpio_analog_en[8] 0.000139479
3 *131:13 0.116675
4 *131:11 0.112148
5 *131:9 0.125645
6 *131:7 0.125784
7 gpio_analog_en[8] gpio_dm0[8] 0.000661871
8 gpio_analog_en[8] *263:17 0.00522828
9 gpio_analog_en[8] *571:26 0
10 *131:7 *281:11 5.53365e-05
11 *131:7 *429:7 4.72078e-05
12 *131:9 *281:11 0.000822308
13 *131:9 *298:16 0.00178781
14 *131:9 *320:17 0
15 *131:9 *364:17 0
16 *131:9 *419:11 0
17 *131:9 *429:7 8.12865e-06
18 *131:9 *429:9 0.00931268
19 *131:9 *540:17 0
20 *131:13 *262:13 0
21 *131:13 *794:13 0.0646713
22 *92:13 *131:13 0
23 *100:13 *131:13 0.0361094
*RES
1 *874:gpio_analog_en[8] *131:7 0.556167 
2 *131:7 *131:9 357.065 
3 *131:9 *131:11 3.41 
4 *131:11 *131:13 347.239 
5 *131:13 gpio_analog_en[8] 17.3291 
*END

*D_NET *132 0.952655
*CONN
*P gpio_analog_en[9] O
*I *874:gpio_analog_en[9] O *D counter_gpio_config_example
*CAP
1 gpio_analog_en[9] 4.7358e-05
2 *874:gpio_analog_en[9] 9.42203e-05
3 *132:13 0.0831199
4 *132:11 0.0830725
5 *132:9 0.0952855
6 *132:7 0.0953797
7 *132:7 *242:7 2.54911e-05
8 *132:7 *266:15 6.58294e-06
9 *132:7 *301:7 2.68037e-05
10 *132:9 *135:11 0.0300767
11 *132:9 *190:19 0.000263954
12 *132:9 *266:17 0.0198257
13 *132:9 *570:6 0.0283625
14 *132:13 gpio_analog_pol[9] 0.000267868
15 *132:13 gpio_dm0[9] 0.00194297
16 *132:13 *176:21 0.16278
17 *132:13 *264:13 0.290917
18 *132:13 *572:9 0
19 *129:9 *132:9 0.0611594
*RES
1 *874:gpio_analog_en[9] *132:7 3.72177 
2 *132:7 *132:9 341.38 
3 *132:9 *132:11 3.41 
4 *132:11 *132:13 464.924 
5 *132:13 gpio_analog_en[9] 0.159017 
*END

*D_NET *133 0.922915
*CONN
*P gpio_analog_pol[0] O
*I *874:gpio_analog_pol[0] O *D counter_gpio_config_example
*CAP
1 gpio_analog_pol[0] 0.000869125
2 *874:gpio_analog_pol[0] 0.00197363
3 *133:17 0.00266463
4 *133:15 0.0017955
5 *133:13 0.0640051
6 *133:11 0.0640051
7 *133:9 0.0161355
8 *133:7 0.0181091
9 gpio_analog_pol[0] gpio_inp_dis[0] 0.000971318
10 gpio_analog_pol[0] *221:17 0.00202341
11 *133:7 *206:7 0.000362442
12 *133:7 *304:7 0.000362442
13 *133:9 *309:9 0
14 *133:9 *392:11 0.000850307
15 *133:9 *392:13 0.00464999
16 *133:9 *426:9 0.030561
17 *133:9 *431:9 0.00166381
18 *133:9 *569:17 0.00790686
19 *133:9 *666:15 0.000600814
20 *133:9 *778:13 0.00173904
21 *133:13 *155:21 0.287117
22 *133:13 *309:13 0.289319
23 *133:13 *404:15 0.05205
24 *133:13 *457:23 0.000263857
25 *133:13 *461:21 0.00205664
26 *133:13 *462:19 3.29849e-05
27 *133:13 *529:13 2.551e-05
28 *133:13 *669:9 0.0591544
29 *133:17 *309:17 0.00394166
30 *133:17 *529:17 0.00376931
31 *93:17 *133:9 0.00062988
32 *105:9 *133:9 0.00126081
33 *125:9 *133:9 0.00204436
*RES
1 *874:gpio_analog_pol[0] *133:7 8.04577 
2 *133:7 *133:9 72.9158 
3 *133:9 *133:11 3.41 
4 *133:11 *133:13 465.922 
5 *133:13 *133:15 3.41 
6 *133:15 *133:17 88.1607 
7 *133:17 gpio_analog_pol[0] 6.84022 
*END

*D_NET *134 0.563948
*CONN
*P gpio_analog_pol[10] O
*I *874:gpio_analog_pol[10] O *D counter_gpio_config_example
*CAP
1 gpio_analog_pol[10] 0.00600652
2 *874:gpio_analog_pol[10] 0.000199562
3 *134:13 0.0877899
4 *134:11 0.0817834
5 *134:9 0.129586
6 *134:7 0.129786
7 gpio_analog_pol[10] *222:17 0.0089516
8 gpio_analog_pol[10] *530:17 0
9 *134:7 *330:11 4.26595e-05
10 *134:7 *338:11 3.58177e-05
11 *134:9 *321:11 0
12 *134:9 *330:11 0.000341976
13 *134:9 *331:9 0
14 *134:9 *338:11 3.4869e-05
15 *134:13 *136:13 0
16 *134:13 *303:13 0.00072795
17 *134:13 *351:13 0.118662
18 *134:13 *437:13 0
*RES
1 *874:gpio_analog_pol[10] *134:7 0.556167 
2 *134:7 *134:9 351.588 
3 *134:9 *134:11 3.41 
4 *134:11 *134:13 323.269 
5 *134:13 gpio_analog_pol[10] 23.0944 
*END

*D_NET *135 0.876651
*CONN
*P gpio_analog_pol[11] O
*I *874:gpio_analog_pol[11] O *D counter_gpio_config_example
*CAP
1 gpio_analog_pol[11] 9.16487e-05
2 *874:gpio_analog_pol[11] 0.000210831
3 *135:15 0.134397
4 *135:13 0.134306
5 *135:11 0.0818395
6 *135:9 0.0820503
7 *135:9 *201:7 0
8 *135:9 *264:7 8.79055e-05
9 *135:9 *665:20 3.7538e-06
10 *135:11 *141:9 0.000154319
11 *135:11 *190:19 0.00225136
12 *135:11 *266:17 0.173315
13 *135:11 *301:9 0.013783
14 *135:11 *324:17 0
15 *135:11 *532:17 0.000222486
16 *135:11 *664:18 0
17 *135:11 *728:29 0
18 *135:15 gpio_dm0[11] 0
19 *135:15 gpio_inp_dis[11] 0.00078048
20 *135:15 *223:13 0
21 *135:15 *531:17 0.222715
22 *129:9 *135:11 0.000365629
23 *132:9 *135:11 0.0300767
*RES
1 *874:gpio_analog_pol[11] *135:9 4.05233 
2 *135:9 *135:11 2525.84 
3 *135:11 *135:13 3.41 
4 *135:13 *135:15 464.888 
5 *135:15 gpio_analog_pol[11] 0.282783 
*END

*D_NET *136 0.648588
*CONN
*P gpio_analog_pol[12] O
*I *874:gpio_analog_pol[12] O *D counter_gpio_config_example
*CAP
1 gpio_analog_pol[12] 0.00609725
2 *874:gpio_analog_pol[12] 0.000170203
3 *136:13 0.140819
4 *136:11 0.134722
5 *136:9 0.111982
6 *136:7 0.112152
7 gpio_analog_pol[12] *224:13 0.00911386
8 gpio_analog_pol[12] *532:23 0.000537699
9 *136:7 *192:7 3.76869e-05
10 *136:7 *399:7 4.31383e-05
11 *136:7 *399:9 5.66041e-06
12 *136:9 *399:9 0.0362345
13 *136:13 *437:13 0.0573516
14 *136:13 *704:13 0.0393204
15 *89:7 *136:7 0
16 *89:9 *136:9 0
17 *134:13 *136:13 0
*RES
1 *874:gpio_analog_pol[12] *136:7 0.556167 
2 *136:7 *136:9 350.579 
3 *136:9 *136:11 3.41 
4 *136:11 *136:13 431.933 
5 *136:13 gpio_analog_pol[12] 24.2913 
*END

*D_NET *137 0.875267
*CONN
*P gpio_analog_pol[13] O
*I *874:gpio_analog_pol[13] O *D counter_gpio_config_example
*CAP
1 gpio_analog_pol[13] 0.00690049
2 *874:gpio_analog_pol[13] 0.000482463
3 *137:17 0.196119
4 *137:15 0.189219
5 *137:13 0.0891721
6 *137:11 0.0896545
7 gpio_analog_pol[13] gpio_inp_dis[13] 0.0002641
8 gpio_analog_pol[13] *225:13 0.000964782
9 gpio_analog_pol[13] *533:25 0.013964
10 *137:11 *278:11 2.22376e-05
11 *137:11 *310:11 2.41207e-05
12 *137:11 *815:17 0
13 *137:13 *303:7 7.64141e-05
14 *137:13 *303:9 0.214422
15 *137:13 *422:11 0.000180786
16 *137:17 *138:13 0
17 *137:17 *276:17 0
18 *137:17 *708:13 0.0738013
*RES
1 *874:gpio_analog_pol[13] *137:11 14.2029 
2 *137:11 *137:13 345.282 
3 *137:13 *137:15 3.41 
4 *137:15 *137:17 554.34 
5 *137:17 gpio_analog_pol[13] 29.2357 
*END

*D_NET *138 0.696589
*CONN
*P gpio_analog_pol[14] O
*I *874:gpio_analog_pol[14] O *D counter_gpio_config_example
*CAP
1 gpio_analog_pol[14] 0.00729086
2 *874:gpio_analog_pol[14] 0.000157558
3 *138:20 0
4 *138:13 0.20616
5 *138:11 0.198869
6 *138:9 0.126033
7 *138:7 0.12619
8 gpio_analog_pol[14] gpio_dm0[14] 0
9 gpio_analog_pol[14] gpio_inp_dis[14] 0.00194127
10 gpio_analog_pol[14] *534:34 0.0144169
11 *138:7 *153:11 4.52428e-05
12 *138:7 *236:7 3.38962e-05
13 *138:7 *530:7 0
14 *138:7 *530:9 0
15 *138:9 *153:11 0.000676227
16 *138:9 *530:9 0
17 *138:13 *746:13 0.0147755
18 *137:17 *138:13 0
*RES
1 *874:gpio_analog_pol[14] *138:7 0.556167 
2 *138:7 *138:9 344.093 
3 *138:9 *138:11 3.41 
4 *138:11 *138:13 584.702 
5 *138:13 gpio_analog_pol[14] 29.8804 
6 gpio_analog_pol[14] *138:20 0.0687805 
*END

*D_NET *139 0.777133
*CONN
*P gpio_analog_pol[15] O
*I *874:gpio_analog_pol[15] O *D counter_gpio_config_example
*CAP
1 gpio_analog_pol[15] 8.42969e-05
2 *874:gpio_analog_pol[15] 0.000188091
3 *139:17 0.147035
4 *139:15 0.146951
5 *139:13 0.158607
6 *139:11 0.158607
7 *139:9 0.0133216
8 *139:7 0.0135097
9 gpio_analog_pol[15] gpio_dm0[15] 0
10 gpio_analog_pol[15] gpio_inp_dis[15] 0
11 gpio_analog_pol[15] *535:17 0
12 *139:7 *332:7 3.96016e-05
13 *139:7 *438:7 0
14 *139:9 *141:9 0.0586329
15 *139:9 *143:9 0.00135481
16 *139:9 *147:9 0.0496883
17 *139:9 *266:17 0.00328224
18 *139:9 *324:17 0
19 *139:9 *344:19 0.00134121
20 *139:9 *347:9 0.00761491
21 *139:9 *347:19 0.000225803
22 *139:9 *389:9 0.00221459
23 *139:9 *532:19 0
24 *139:13 *556:17 0
25 *139:13 *773:11 0
26 *139:13 *788:9 0
27 *139:13 *811:11 0.0134442
28 *139:17 *227:21 0
29 *139:17 *535:17 0
30 *129:9 *139:9 0.000990154
*RES
1 *874:gpio_analog_pol[15] *139:7 3.90193 
2 *139:7 *139:9 799.732 
3 *139:9 *139:11 3.41 
4 *139:11 *139:13 433.384 
5 *139:13 *139:15 3.41 
6 *139:15 *139:17 3026.12 
7 *139:17 gpio_analog_pol[15] 1.60714 
*END

*D_NET *140 0.530667
*CONN
*P gpio_analog_pol[16] O
*I *874:gpio_analog_pol[16] O *D counter_gpio_config_example
*CAP
1 gpio_analog_pol[16] 0.00121507
2 *874:gpio_analog_pol[16] 0.000178471
3 *140:13 0.169339
4 *140:11 0.168124
5 *140:9 0.09577
6 *140:7 0.0959485
7 gpio_analog_pol[16] gpio_dm0[16] 0
8 gpio_analog_pol[16] gpio_inp_dis[16] 0
9 *140:7 *245:7 3.40663e-05
10 *140:7 *425:11 3.74744e-05
11 *140:9 *239:11 0
12 *140:9 *299:9 0
13 *140:9 *425:11 2.10916e-05
*RES
1 *874:gpio_analog_pol[16] *140:7 0.556167 
2 *140:7 *140:9 257.649 
3 *140:9 *140:11 3.41 
4 *140:11 *140:13 3457.2 
5 *140:13 gpio_analog_pol[16] 22.8702 
*END

*D_NET *141 0.784467
*CONN
*P gpio_analog_pol[17] O
*I *874:gpio_analog_pol[17] O *D counter_gpio_config_example
*CAP
1 gpio_analog_pol[17] 0.15066
2 *874:gpio_analog_pol[17] 0.000125782
3 *141:15 0.15066
4 *141:13 0.0880013
5 *141:11 0.0880013
6 *141:9 0.0118378
7 *141:7 0.0119636
8 gpio_analog_pol[17] gpio_dm0[17] 0
9 gpio_analog_pol[17] gpio_inp_dis[17] 0
10 *141:7 *193:7 3.69433e-05
11 *141:9 *266:17 0.0334174
12 *141:9 *301:9 0.0320112
13 *141:9 *389:9 0.00385754
14 *141:13 *406:13 0.149209
15 *141:13 *537:13 0
16 *141:13 *688:19 5.01305e-05
17 *99:7 *141:7 3.53311e-05
18 *129:9 *141:9 0.00581294
19 *135:11 *141:9 0.000154319
20 *139:9 *141:9 0.0586329
*RES
1 *874:gpio_analog_pol[17] *141:7 3.82987 
2 *141:7 *141:9 814.304 
3 *141:9 *141:11 3.41 
4 *141:11 *141:13 313.249 
5 *141:13 *141:15 3.41 
6 *141:15 gpio_analog_pol[17] 3100.74 
*END

*D_NET *142 0.592421
*CONN
*P gpio_analog_pol[18] O
*I *874:gpio_analog_pol[18] O *D counter_gpio_config_example
*CAP
1 gpio_analog_pol[18] 0.152255
2 *874:gpio_analog_pol[18] 0.000375793
3 *142:15 0.152255
4 *142:13 0.0824675
5 *142:11 0.0824675
6 *142:9 0.00439191
7 *142:7 0.00476771
8 gpio_analog_pol[18] gpio_dm0[18] 0
9 gpio_analog_pol[18] gpio_inp_dis[18] 0
10 *142:7 *168:7 0
11 *142:7 *180:7 6.04896e-05
12 *142:9 *143:9 0.0015089
13 *142:9 *190:9 0.0231717
14 *142:9 *391:9 0.00519413
15 *142:9 *391:19 6.91065e-05
16 *142:9 *532:19 0.0260974
17 *142:13 *147:23 0
18 *142:13 *235:17 0
19 *142:13 *323:15 0
20 *142:13 *367:25 0
21 *142:13 *553:18 0.0570857
22 *142:13 *699:9 0
23 *142:13 *743:17 0
24 *142:13 *781:15 0
25 *103:27 *142:13 0.00025355
*RES
1 *874:gpio_analog_pol[18] *142:7 4.1902 
2 *142:7 *142:9 321.911 
3 *142:9 *142:11 3.41 
4 *142:11 *142:13 243.921 
5 *142:13 *142:15 3.41 
6 *142:15 gpio_analog_pol[18] 3131.71 
*END

*D_NET *143 0.6079
*CONN
*P gpio_analog_pol[19] O
*I *874:gpio_analog_pol[19] O *D counter_gpio_config_example
*CAP
1 gpio_analog_pol[19] 0.1516
2 *874:gpio_analog_pol[19] 0.000255631
3 *143:15 0.1516
4 *143:13 0.0445995
5 *143:11 0.0445995
6 *143:9 0.00919736
7 *143:7 0.00945299
8 gpio_analog_pol[19] gpio_dm0[19] 0
9 gpio_analog_pol[19] gpio_inp_dis[19] 0
10 *143:7 *179:15 5.45312e-05
11 *143:7 *548:7 5.29272e-05
12 *143:9 *147:9 0.0452949
13 *143:9 *190:9 0.0248825
14 *143:9 *302:9 0.0110009
15 *143:9 *347:19 0.000229468
16 *143:9 *391:9 0.00699688
17 *143:9 *391:19 6.58704e-05
18 *143:9 *532:19 0.00341636
19 *143:13 *360:13 0.101198
20 *143:13 *796:11 0.000292506
21 *143:13 *809:11 0.000247518
22 *139:9 *143:9 0.00135481
23 *142:9 *143:9 0.0015089
*RES
1 *874:gpio_analog_pol[19] *143:7 4.04607 
2 *143:7 *143:9 595.732 
3 *143:9 *143:11 3.41 
4 *143:11 *143:13 163.999 
5 *143:13 *143:15 3.41 
6 *143:15 gpio_analog_pol[19] 3118.96 
*END

*D_NET *144 0.484679
*CONN
*P gpio_analog_pol[1] O
*I *874:gpio_analog_pol[1] O *D counter_gpio_config_example
*CAP
1 gpio_analog_pol[1] 0.00887552
2 *874:gpio_analog_pol[1] 0.00135508
3 *144:10 0.229379
4 *144:8 0.221858
5 gpio_analog_pol[1] gpio_dm0[1] 0
6 gpio_analog_pol[1] gpio_dm1[1] 0
7 gpio_analog_pol[1] gpio_inp_dis[2] 0.00130867
8 gpio_analog_pol[1] *188:13 0.00477105
9 gpio_analog_pol[1] *540:17 0
10 gpio_analog_pol[1] *700:13 0.00109563
11 *144:8 *433:10 0
12 *144:8 *532:17 0.000476469
13 *144:8 *664:18 0.000435879
14 *144:8 *665:22 0.000487585
15 *144:10 *186:11 0.00567862
16 *144:10 *555:11 0.000244221
17 *144:10 *558:18 0.00818976
18 *89:13 gpio_analog_pol[1] 0.000523868
19 *129:9 *144:8 0
*RES
1 *874:gpio_analog_pol[1] *144:8 7.9918 
2 *144:8 *144:10 51.9605 
3 *144:10 gpio_analog_pol[1] 34.0698 
*END

*D_NET *145 0.406919
*CONN
*P gpio_analog_pol[20] O
*I *874:gpio_analog_pol[20] O *D counter_gpio_config_example
*CAP
1 gpio_analog_pol[20] 0.0023951
2 *874:gpio_analog_pol[20] 0.0085249
3 *145:13 0.156255
4 *145:11 0.162384
5 gpio_analog_pol[20] gpio_dm0[20] 0
6 gpio_analog_pol[20] gpio_inp_dis[20] 0
7 gpio_analog_pol[20] *183:21 0.000386123
8 gpio_analog_pol[20] *189:13 0.000779675
9 gpio_analog_pol[20] *233:25 0
10 *145:11 *185:11 0
11 *145:11 *258:11 0
12 *145:11 *408:11 0.000992183
13 *145:11 *787:17 0.00311357
14 *145:13 *400:13 0.0716334
15 *145:13 *805:29 0
16 *101:17 gpio_analog_pol[20] 0.000455125
*RES
1 *874:gpio_analog_pol[20] *145:11 28.1195 
2 *145:11 *145:13 3163.34 
3 *145:13 gpio_analog_pol[20] 29.0692 
*END

*D_NET *146 0.375542
*CONN
*P gpio_analog_pol[21] O
*I *874:gpio_analog_pol[21] O *D counter_gpio_config_example
*CAP
1 gpio_analog_pol[21] 8.83825e-05
2 *874:gpio_analog_pol[21] 0.00106882
3 *146:29 0.153575
4 *146:27 0.154803
5 *146:17 0.00308514
6 *146:13 0.0119919
7 *146:11 0.011292
8 gpio_analog_pol[21] gpio_dm0[21] 0
9 gpio_analog_pol[21] gpio_inp_dis[21] 0
10 *146:13 *292:13 0.0154091
11 *146:13 *294:13 0.0020764
12 *146:13 *380:13 0.00363926
13 *146:13 *557:13 0
14 *146:13 *562:13 0
15 *146:13 *672:13 0
16 *146:13 *782:29 0
17 *146:17 *205:17 0.000613251
18 *146:17 *705:39 0.0017359
19 *146:17 *740:18 0
20 *146:17 *749:21 0.000142732
21 *146:17 *793:11 0.000992558
22 *146:27 *238:27 4.73891e-05
23 *146:27 *240:19 0.000321518
24 *146:27 *425:17 0.00356406
25 *146:27 *705:35 0.000139156
26 *146:27 *749:19 0.00171342
27 *146:29 *234:21 0
28 *146:29 *464:19 0.00903954
29 *146:29 *542:25 0
30 *90:7 *146:11 0
31 *90:9 *146:11 0
32 *98:11 *146:11 0.000203939
*RES
1 *874:gpio_analog_pol[21] *146:11 6.13913 
2 *146:11 *146:13 294.741 
3 *146:13 *146:17 49.3929 
4 *146:17 *146:27 21.2835 
5 *146:27 *146:29 3147.55 
6 *146:29 gpio_analog_pol[21] 1.60714 
*END

*D_NET *147 0.51026
*CONN
*P gpio_analog_pol[22] O
*I *874:gpio_analog_pol[22] O *D counter_gpio_config_example
*CAP
1 gpio_analog_pol[22] 0.158092
2 *874:gpio_analog_pol[22] 0.000245092
3 *147:23 0.165036
4 *147:19 0.00780943
5 *147:9 0.00938426
6 *147:7 0.00876344
7 gpio_analog_pol[22] gpio_dm0[22] 0
8 gpio_analog_pol[22] gpio_inp_dis[22] 0
9 gpio_analog_pol[22] *678:5 0
10 gpio_analog_pol[22] *688:5 0.00266181
11 *147:7 *407:7 0
12 *147:7 *664:16 2.20264e-05
13 *147:9 *302:9 0.000213997
14 *147:9 *344:19 0.00401304
15 *147:9 *347:9 0.00561403
16 *147:19 *225:9 0
17 *147:19 *532:19 0.0014199
18 *147:23 *271:19 0.0181605
19 *147:23 *323:15 0.025384
20 *147:23 *367:25 0.00209389
21 *147:23 *544:17 0.00369597
22 *104:27 *147:23 0.0026674
23 *139:9 *147:9 0.0496883
24 *142:13 *147:23 0
25 *143:9 *147:9 0.0452949
*RES
1 *874:gpio_analog_pol[22] *147:7 3.974 
2 *147:7 *147:9 614.705 
3 *147:9 *147:19 32.7761 
4 *147:19 *147:23 46.7691 
5 *147:23 gpio_analog_pol[22] 3136.56 
*END

*D_NET *148 0.474859
*CONN
*P gpio_analog_pol[23] O
*I *874:gpio_analog_pol[23] O *D counter_gpio_config_example
*CAP
1 gpio_analog_pol[23] 0.00220605
2 *874:gpio_analog_pol[23] 0.00249843
3 *148:21 0.156115
4 *148:19 0.153909
5 *148:17 0.00786756
6 *148:15 0.00786756
7 *148:13 0.00333393
8 *148:11 0.00583236
9 gpio_analog_pol[23] gpio_inp_dis[23] 0
10 gpio_analog_pol[23] *236:17 0
11 *148:11 *261:7 4.26595e-05
12 *148:11 *261:9 0.000442773
13 *148:11 *531:11 0
14 *148:13 *149:13 0.000198764
15 *148:13 *205:13 0.00739765
16 *148:13 *282:13 6.20705e-05
17 *148:13 *415:13 0.00098706
18 *148:13 *479:11 0
19 *148:13 *716:23 0
20 *148:17 *347:21 0.0586994
21 *148:17 *391:21 0.0586977
22 *148:17 *427:17 0.00820799
23 *148:21 *544:21 0
24 *106:11 *148:11 0.000381675
25 *117:17 *148:17 0.000111763
*RES
1 *874:gpio_analog_pol[23] *148:11 9.4542 
2 *148:11 *148:13 100.455 
3 *148:13 *148:15 4.5 
4 *148:15 *148:17 555.411 
5 *148:17 *148:19 4.5 
6 *148:19 *148:21 3101.92 
7 *148:21 gpio_analog_pol[23] 42.9732 
*END

*D_NET *149 0.670449
*CONN
*P gpio_analog_pol[24] O
*I *874:gpio_analog_pol[24] O *D counter_gpio_config_example
*CAP
1 gpio_analog_pol[24] 0.000106614
2 *874:gpio_analog_pol[24] 0.00198934
3 *149:25 0.0351395
4 *149:23 0.0350329
5 *149:21 0.0926041
6 *149:19 0.0926516
7 *149:13 0.0474864
8 *149:11 0.0494281
9 *149:11 *165:7 4.10797e-05
10 *149:11 *165:9 0.000430723
11 *149:11 *270:7 3.61021e-05
12 *149:11 *270:9 0.0004357
13 *149:13 *240:13 0
14 *149:13 *246:27 0.00107493
15 *149:13 *246:35 0.000154703
16 *149:13 *246:37 0.0139324
17 *149:13 *282:13 0.0266075
18 *149:13 *415:13 0.000532962
19 *149:13 *479:11 0
20 *149:13 *481:11 0
21 *149:13 *738:21 0
22 *149:21 *326:21 0
23 *149:21 *330:21 0.0386907
24 *149:21 *330:31 0.00092209
25 *149:21 *415:13 0.122763
26 *149:25 gpio_dm0[24] 0.000453566
27 *149:25 *237:13 0.075638
28 *149:25 *314:13 0
29 *149:25 *545:30 0
30 *106:21 *149:21 0.0340982
31 *148:13 *149:13 0.000198764
*RES
1 *874:gpio_analog_pol[24] *149:11 9.238 
2 *149:11 *149:13 1063.84 
3 *149:13 *149:19 6.90303 
4 *149:19 *149:21 434.703 
5 *149:21 *149:23 3.41 
6 *149:23 *149:25 130.824 
7 *149:25 gpio_analog_pol[24] 0.357983 
*END

*D_NET *150 0.532093
*CONN
*P gpio_analog_pol[25] O
*I *874:gpio_analog_pol[25] O *D counter_gpio_config_example
*CAP
1 gpio_analog_pol[25] 0.0057338
2 *874:gpio_analog_pol[25] 0.00416689
3 *150:9 0.137874
4 *150:7 0.136307
5 gpio_analog_pol[25] gpio_dm0[25] 0.000492821
6 gpio_analog_pol[25] gpio_inp_dis[25] 0
7 gpio_analog_pol[25] *238:33 0.00991981
8 *150:7 *202:7 0.00132014
9 *150:7 *274:7 0.000666331
10 *150:7 *547:7 0
11 *150:9 *152:17 0
12 *150:9 *193:17 0
13 *150:9 *201:9 0
14 *150:9 *220:9 0.00237566
15 *150:9 *288:9 0
16 *150:9 *328:9 0.216326
17 *150:9 *379:13 0
18 *150:9 *383:9 0
19 *150:9 *396:15 0.000245139
20 *150:9 *469:11 0.016666
21 *106:25 gpio_analog_pol[25] 0
*RES
1 *874:gpio_analog_pol[25] *150:7 16.1172 
2 *150:7 *150:9 535.91 
3 *150:9 gpio_analog_pol[25] 22.438 
*END

*D_NET *151 0.32947
*CONN
*P gpio_analog_pol[26] O
*I *874:gpio_analog_pol[26] O *D counter_gpio_config_example
*CAP
1 gpio_analog_pol[26] 0.0101244
2 *874:gpio_analog_pol[26] 0.00302669
3 *151:9 0.127256
4 *151:7 0.120158
5 gpio_analog_pol[26] gpio_dm0[26] 0.000277084
6 gpio_analog_pol[26] gpio_inp_dis[26] 0.000349596
7 gpio_analog_pol[26] *239:25 0
8 *151:7 *174:7 0.000485962
9 *151:7 *396:15 0.000514902
10 *151:9 *325:9 0.0393087
11 *151:9 *821:13 0.0279692
12 *95:9 *151:9 0
13 *102:9 *151:9 0
*RES
1 *874:gpio_analog_pol[26] *151:7 10.6041 
2 *151:7 *151:9 2482.73 
3 *151:9 gpio_analog_pol[26] 40.7736 
*END

*D_NET *152 0.399882
*CONN
*P gpio_analog_pol[27] O
*I *874:gpio_analog_pol[27] O *D counter_gpio_config_example
*CAP
1 gpio_analog_pol[27] 0.00776172
2 *874:gpio_analog_pol[27] 0.00609638
3 *152:17 0.0956118
4 *152:15 0.0880159
5 *152:9 0.0193488
6 *152:7 0.0252793
7 gpio_analog_pol[27] gpio_dm0[27] 0
8 gpio_analog_pol[27] gpio_inp_dis[27] 9.16233e-05
9 gpio_analog_pol[27] *240:28 0
10 *152:7 *180:7 0.000365822
11 *152:7 *189:7 0
12 *152:7 *233:7 0.000162979
13 *152:9 *379:13 0.0192067
14 *152:9 *396:17 0.0503709
15 *152:15 gpio_holdover[33] 0
16 *152:15 *203:17 0.000311383
17 *152:17 *288:9 0.0804799
18 *152:17 *396:17 0.00677828
19 *108:25 gpio_analog_pol[27] 0
20 *150:9 *152:17 0
*RES
1 *874:gpio_analog_pol[27] *152:7 16.8019 
2 *152:7 *152:9 620.625 
3 *152:9 *152:15 7.33543 
4 *152:15 *152:17 271.494 
5 *152:17 gpio_analog_pol[27] 21.8802 
*END

*D_NET *153 0.514035
*CONN
*P gpio_analog_pol[28] O
*I *874:gpio_analog_pol[28] O *D counter_gpio_config_example
*CAP
1 gpio_analog_pol[28] 0.00239874
2 *874:gpio_analog_pol[28] 0.00237438
3 *153:17 0.0515096
4 *153:15 0.0491109
5 *153:13 0.0736304
6 *153:11 0.0760048
7 gpio_analog_pol[28] gpio_dm0[28] 0.00066329
8 gpio_analog_pol[28] gpio_inp_dis[28] 0
9 *153:11 *246:27 0.000549015
10 *153:13 *281:21 0
11 *153:13 *286:13 0.0089815
12 *153:13 *357:17 0
13 *153:13 *423:13 0.0296437
14 *153:13 *444:11 0.022161
15 *153:13 *446:11 0.0264213
16 *153:17 gpio_dm0[28] 0.00522085
17 *109:13 *153:13 0.164644
18 *109:17 *153:17 0
19 *121:11 *153:11 0
20 *138:7 *153:11 4.52428e-05
21 *138:9 *153:11 0.000676227
*RES
1 *874:gpio_analog_pol[28] *153:11 10.6433 
2 *153:11 *153:13 352.672 
3 *153:13 *153:15 3.41 
4 *153:15 *153:17 126.884 
5 *153:17 gpio_analog_pol[28] 5.88988 
*END

*D_NET *154 0.389511
*CONN
*P gpio_analog_pol[29] O
*I *874:gpio_analog_pol[29] O *D counter_gpio_config_example
*CAP
1 gpio_analog_pol[29] 0.0088125
2 *874:gpio_analog_pol[29] 0.00278618
3 *154:24 0
4 *154:17 0.0482638
5 *154:15 0.0396471
6 *154:9 0.0140789
7 *154:7 0.0166692
8 gpio_analog_pol[29] gpio_dm0[29] 0.00888948
9 gpio_analog_pol[29] *286:25 0
10 *154:7 gpio_inp_dis[37] 0
11 *154:7 *360:7 0.000150237
12 *154:7 *395:7 0
13 *154:7 *535:7 0.00019407
14 *154:9 *274:9 0
15 *154:9 *283:9 0.000475132
16 *154:9 *377:9 0.0359371
17 *154:9 *471:11 0.00195994
18 *154:15 *381:17 0.000158531
19 *154:17 *174:9 0.00479322
20 *154:17 *274:9 0.0019357
21 *154:17 *283:17 0.111365
22 *154:17 *377:17 0.0870845
23 *105:17 *154:17 0
24 *115:9 *154:9 0.00631017
*RES
1 *874:gpio_analog_pol[29] *154:7 9.45107 
2 *154:7 *154:9 455.482 
3 *154:9 *154:15 7.33543 
4 *154:15 *154:17 257.432 
5 *154:17 gpio_analog_pol[29] 28.4406 
6 gpio_analog_pol[29] *154:24 0.0854545 
*END

*D_NET *155 0.703412
*CONN
*P gpio_analog_pol[2] O
*I *874:gpio_analog_pol[2] O *D counter_gpio_config_example
*CAP
1 gpio_analog_pol[2] 0.000952908
2 *874:gpio_analog_pol[2] 0.00054526
3 *155:25 0.0145909
4 *155:23 0.013638
5 *155:21 0.0832598
6 *155:19 0.0834672
7 *155:9 0.00227859
8 *155:7 0.00261645
9 gpio_analog_pol[2] gpio_dm0[2] 0.00194238
10 gpio_analog_pol[2] gpio_inp_dis[2] 0.00111214
11 *155:7 *328:7 0.000126087
12 *155:7 *383:7 0.000126087
13 *155:9 *164:9 0.00614163
14 *155:9 *212:9 0.00904587
15 *155:9 *384:9 0.0015311
16 *155:19 *309:13 0.000293637
17 *155:19 *461:21 3.47641e-06
18 *155:19 *471:15 0.000293637
19 *155:21 *457:23 0.0105378
20 *155:21 *458:23 0.00989494
21 *155:21 *462:19 0.05265
22 *155:21 *529:13 0.0329079
23 *155:21 *827:9 0.0439101
24 *155:25 gpio_dm0[1] 0
25 *155:25 gpio_dm0[2] 0
26 *155:25 gpio_dm1[1] 0
27 *155:25 gpio_dm2[1] 0
28 *155:25 *309:17 0.00469284
29 *155:25 *342:25 0.0397354
30 *133:13 *155:21 0.287117
*RES
1 *874:gpio_analog_pol[2] *155:7 4.98293 
2 *155:7 *155:9 113.661 
3 *155:9 *155:19 12.6558 
4 *155:19 *155:21 462.138 
5 *155:21 *155:23 3.41 
6 *155:23 *155:25 491.304 
7 *155:25 gpio_analog_pol[2] 7.15355 
*END

*D_NET *156 0.404046
*CONN
*P gpio_analog_pol[30] O
*I *874:gpio_analog_pol[30] O *D counter_gpio_config_example
*CAP
1 gpio_analog_pol[30] 0.00557159
2 *874:gpio_analog_pol[30] 0.00252126
3 *156:17 0.0528007
4 *156:15 0.0472291
5 *156:13 0.0308608
6 *156:11 0.033382
7 gpio_analog_pol[30] gpio_dm0[30] 0
8 gpio_analog_pol[30] gpio_inp_dis[30] 0.000477419
9 gpio_analog_pol[30] *413:17 0.000365668
10 *156:11 *326:11 0
11 *156:11 *334:11 0.000148356
12 *156:11 *435:7 4.1194e-05
13 *156:11 *435:9 0.000471497
14 *156:13 *415:13 0.115231
15 *156:13 *531:13 0.113059
16 *156:13 *533:13 0.00104902
17 *108:19 *156:17 0
18 *109:13 *156:13 0
19 *112:33 gpio_analog_pol[30] 0.000837767
20 *112:33 *156:17 0
*RES
1 *874:gpio_analog_pol[30] *156:11 9.49023 
2 *156:11 *156:13 246.778 
3 *156:13 *156:15 3.41 
4 *156:15 *156:17 118.164 
5 *156:17 gpio_analog_pol[30] 13.8517 
*END

*D_NET *157 0.283737
*CONN
*P gpio_analog_pol[31] O
*I *874:gpio_analog_pol[31] O *D counter_gpio_config_example
*CAP
1 gpio_analog_pol[31] 0.00602331
2 *874:gpio_analog_pol[31] 0.00763853
3 *157:17 0.0421327
4 *157:15 0.0363224
5 *157:9 0.00513959
6 *157:7 0.0125652
7 gpio_analog_pol[31] gpio_dm0[31] 0
8 gpio_analog_pol[31] gpio_inp_dis[31] 0.000255053
9 gpio_analog_pol[31] *245:13 0
10 *157:7 gpio_slow_sel[37] 0
11 *157:7 *421:7 0
12 *157:7 *440:7 0
13 *157:7 *471:9 0.00107107
14 *157:9 *161:9 0.00483585
15 *157:9 *280:9 0.000817262
16 *157:9 *366:9 0.0020556
17 *157:9 *413:9 0.00637006
18 *157:15 gpio_analog_sel[36] 0.000398461
19 *157:17 *289:9 0.0580658
20 *157:17 *336:9 0.00596345
21 *157:17 *413:17 0.0940827
22 *113:17 gpio_analog_pol[31] 0
*RES
1 *874:gpio_analog_pol[31] *157:7 21.1259 
2 *157:7 *157:9 151.304 
3 *157:9 *157:15 7.47957 
4 *157:15 *157:17 237.936 
5 *157:17 gpio_analog_pol[31] 17.1364 
*END

*D_NET *158 0.261474
*CONN
*P gpio_analog_pol[32] O
*I *874:gpio_analog_pol[32] O *D counter_gpio_config_example
*CAP
1 gpio_analog_pol[32] 0.000342458
2 *874:gpio_analog_pol[32] 0.000156753
3 *158:15 0.048689
4 *158:13 0.0483465
5 *158:11 0.0244825
6 *158:9 0.0246393
7 gpio_analog_pol[32] gpio_dm0[32] 0.000164647
8 gpio_analog_pol[32] gpio_inp_dis[32] 0
9 gpio_analog_pol[32] *726:21 0.000466282
10 *158:9 *273:7 3.28247e-05
11 *158:9 *273:9 3.81183e-06
12 *158:9 *409:11 4.94988e-05
13 *158:11 *195:9 0.00624362
14 *158:11 *234:13 0.0338952
15 *158:11 *236:9 0.000683358
16 *158:11 *245:9 0.0675079
17 *158:11 *543:13 0.000772229
18 *158:15 gpio_inp_dis[32] 0.00442941
19 *158:15 *246:53 0
20 *158:15 *332:15 0.000568292
*RES
1 *874:gpio_analog_pol[32] *158:9 4.31431 
2 *158:9 *158:11 934.214 
3 *158:11 *158:13 3.41 
4 *158:13 *158:15 125.299 
5 *158:15 gpio_analog_pol[32] 13.1048 
*END

*D_NET *159 0.19628
*CONN
*P gpio_analog_pol[33] O
*I *874:gpio_analog_pol[33] O *D counter_gpio_config_example
*CAP
1 gpio_analog_pol[33] 0.00509941
2 *874:gpio_analog_pol[33] 0.00814076
3 *159:9 0.0272265
4 *159:7 0.0302679
5 gpio_analog_pol[33] gpio_dm0[33] 0
6 gpio_analog_pol[33] *555:17 0.00163513
7 *159:9 *202:9 0.0689106
8 *159:9 *248:9 0
9 *159:9 *289:9 0
10 *159:9 *336:9 0.0381552
11 *159:9 *361:9 0.00270353
12 *159:9 *365:9 0.00101967
13 *159:9 *413:17 0.00599584
14 gpio_analog_en[33] gpio_analog_pol[33] 0
15 *115:7 *159:7 0.000439001
16 *116:7 *159:7 0.000437007
17 *119:11 *159:9 0.00624965
*RES
1 *874:gpio_analog_pol[33] *159:7 22.315 
2 *159:7 *159:9 147.809 
3 *159:9 gpio_analog_pol[33] 16.3718 
*END

*D_NET *160 0.238078
*CONN
*P gpio_analog_pol[34] O
*I *874:gpio_analog_pol[34] O *D counter_gpio_config_example
*CAP
1 gpio_analog_pol[34] 0.0024299
2 *874:gpio_analog_pol[34] 0.0027201
3 *160:21 0.0516261
4 *160:19 0.0491962
5 *160:17 0.0283691
6 *160:15 0.0310892
7 gpio_analog_pol[34] gpio_dm0[34] 0.000649823
8 gpio_analog_pol[34] *556:22 1.70711e-05
9 *160:15 *200:11 0.000836077
10 *160:15 *256:7 4.82943e-05
11 *160:15 *339:33 2.85934e-05
12 *160:15 *405:7 4.72078e-05
13 *160:15 *405:9 8.12865e-06
14 *160:15 *815:17 0.000205661
15 *160:17 gpio_dm1[36] 2.85934e-05
16 *160:17 *200:11 0.000805304
17 *160:17 *200:13 0.0520544
18 *160:17 *338:13 0.000205661
19 *160:17 *368:13 0.00707471
20 *160:17 *368:39 0.000638459
21 *160:17 *368:55 0.00309201
22 *160:17 *368:57 0.00328901
23 *160:17 *378:13 0
24 *160:17 *378:19 0.000172063
25 *160:17 *427:13 0.000333729
26 *160:17 *727:25 0.000889943
27 *160:17 *771:13 0.000411322
28 *160:21 gpio_dm0[34] 0.00102983
29 gpio_analog_en[34] *160:21 0
30 *104:27 *160:17 0.000114414
31 *120:10 *160:15 0.000441721
32 *122:193 *160:17 0.000225113
*RES
1 *874:gpio_analog_pol[34] *160:15 9.37003 
2 *160:15 *160:17 116.895 
3 *160:17 *160:19 3.41 
4 *160:19 *160:21 120.542 
5 *160:21 gpio_analog_pol[34] 5.83975 
*END

*D_NET *161 0.166543
*CONN
*P gpio_analog_pol[35] O
*I *874:gpio_analog_pol[35] O *D counter_gpio_config_example
*CAP
1 gpio_analog_pol[35] 0.00437836
2 *874:gpio_analog_pol[35] 0.00688527
3 *161:9 0.0246095
4 *161:7 0.0271164
5 gpio_analog_pol[35] gpio_dm0[35] 0.00835623
6 gpio_analog_pol[35] gpio_inp_dis[35] 0.000194323
7 gpio_analog_pol[35] *413:15 0.000472925
8 *161:7 *272:7 0.00125546
9 *161:7 *393:7 0
10 *161:9 *206:11 0.0184119
11 *161:9 *242:9 0
12 *161:9 *248:9 0.0479716
13 *161:9 *280:9 0.00829299
14 *161:9 *307:9 0
15 *161:9 *366:9 0.00362241
16 *161:9 *413:9 0.00979064
17 *125:7 *161:7 0.000349696
18 *157:9 *161:9 0.00483585
*RES
1 *874:gpio_analog_pol[35] *161:7 21.1619 
2 *161:7 *161:9 102.852 
3 *161:9 gpio_analog_pol[35] 17.2695 
*END

*D_NET *162 0.127945
*CONN
*P gpio_analog_pol[36] O
*I *874:gpio_analog_pol[36] O *D counter_gpio_config_example
*CAP
1 gpio_analog_pol[36] 0.00961876
2 *874:gpio_analog_pol[36] 0.00460901
3 *162:9 0.0334117
4 *162:7 0.028402
5 gpio_analog_pol[36] gpio_dm0[36] 0
6 gpio_analog_pol[36] gpio_inp_dis[36] 0.000263856
7 gpio_analog_pol[36] *193:15 0
8 *162:7 *340:7 0
9 *162:7 *352:7 0.000218347
10 *162:7 *404:9 0
11 *162:9 *178:17 0.00320472
12 *162:9 *179:15 0.00283235
13 *162:9 *193:9 0.000639871
14 *162:9 *268:17 0.00560866
15 *162:9 *284:9 0.00416567
16 *162:9 *328:9 0
17 *162:9 *333:9 0.00560165
18 *162:9 *374:9 0.0281926
19 *162:9 *418:9 0.00117529
20 gpio_analog_en[36] gpio_analog_pol[36] 0
*RES
1 *874:gpio_analog_pol[36] *162:7 14.5318 
2 *162:7 *162:9 101.786 
3 *162:9 gpio_analog_pol[36] 24.6814 
*END

*D_NET *163 0.0754764
*CONN
*P gpio_analog_pol[37] O
*I *874:gpio_analog_pol[37] O *D counter_gpio_config_example
*CAP
1 gpio_analog_pol[37] 0.00599534
2 *874:gpio_analog_pol[37] 0.00670575
3 *163:9 0.0200668
4 *163:7 0.0207772
5 gpio_analog_pol[37] gpio_dm0[37] 0
6 gpio_analog_pol[37] gpio_dm1[37] 0
7 gpio_analog_pol[37] gpio_inp_dis[37] 0.00166656
8 *163:7 *279:7 0
9 *163:7 *284:7 0.00114903
10 *163:9 *202:9 0
11 *163:9 *248:9 0.017422
12 *163:9 *280:9 0.00124534
13 *163:9 *291:9 0
14 *163:9 *307:9 0
15 *91:7 *163:7 0.000448274
16 *119:11 *163:9 0
*RES
1 *874:gpio_analog_pol[37] *163:7 21.4502 
2 *163:7 *163:9 53.3137 
3 *163:9 gpio_analog_pol[37] 17.481 
*END

*D_NET *164 0.186677
*CONN
*P gpio_analog_pol[38] O
*I *874:gpio_analog_pol[38] O *D counter_gpio_config_example
*CAP
1 gpio_analog_pol[38] 0.000149413
2 *874:gpio_analog_pol[38] 0.000496124
3 *164:13 0.0122413
4 *164:11 0.0120919
5 *164:9 0.00661189
6 *164:7 0.00710801
7 gpio_analog_pol[38] gpio_dm0[38] 0.000260276
8 gpio_analog_pol[38] *560:19 0
9 *164:7 *220:7 0.00012219
10 *164:7 *359:7 0.00012219
11 *164:9 *212:9 0.00854348
12 *164:9 *384:9 0.013948
13 *164:13 *168:19 2.41739e-05
14 *164:13 *168:21 0.000180678
15 *164:13 *212:13 0.000449083
16 *164:13 *296:13 0.0531061
17 *164:13 *300:13 0.000342617
18 *164:13 *300:21 0.00483717
19 *164:13 *340:17 0.0543379
20 *164:13 *344:33 9.37046e-05
21 *164:13 *344:35 0.00532457
22 *125:19 *164:9 0
23 *125:19 *164:13 0.000144997
24 *155:9 *164:9 0.00614163
*RES
1 *874:gpio_analog_pol[38] *164:7 4.91087 
2 *164:7 *164:9 276.982 
3 *164:9 *164:11 3.41 
4 *164:11 *164:13 88.5449 
5 *164:13 gpio_analog_pol[38] 7.20464 
*END

*D_NET *165 0.119549
*CONN
*P gpio_analog_pol[39] O
*I *874:gpio_analog_pol[39] O *D counter_gpio_config_example
*CAP
1 gpio_analog_pol[39] 0.00313115
2 *874:gpio_analog_pol[39] 0.000166885
3 *165:13 0.0306163
4 *165:11 0.0274852
5 *165:9 0.0261104
6 *165:7 0.0262772
7 gpio_analog_pol[39] *253:25 0
8 gpio_analog_pol[39] *431:13 0.00517148
9 gpio_analog_pol[39] *561:25 0
10 gpio_analog_pol[39] *693:9 0
11 *165:7 *368:13 3.74514e-05
12 *165:9 *214:17 0
13 *165:9 *270:9 0
14 *165:9 *368:13 8.09555e-05
15 *165:9 *551:9 0
16 *149:11 *165:7 4.10797e-05
17 *149:11 *165:9 0.000430723
*RES
1 *874:gpio_analog_pol[39] *165:7 0.556167 
2 *165:7 *165:9 69.5553 
3 *165:9 *165:11 3.41 
4 *165:11 *165:13 555.661 
5 *165:13 gpio_analog_pol[39] 32.6993 
*END

*D_NET *166 0.313263
*CONN
*P gpio_analog_pol[3] O
*I *874:gpio_analog_pol[3] O *D counter_gpio_config_example
*CAP
1 gpio_analog_pol[3] 6.7421e-05
2 *874:gpio_analog_pol[3] 0.000160909
3 *166:17 0.120338
4 *166:15 0.120271
5 *166:13 0.0158755
6 *166:9 0.0337386
7 *166:7 0.018024
8 *166:9 *170:11 0
9 *166:13 *269:13 0
10 *166:17 gpio_dm0[3] 0
11 *166:17 *562:17 0
12 *92:7 *166:7 3.6865e-05
13 *92:7 *166:9 6.00628e-06
14 *92:9 *166:9 0.00446082
15 *108:11 *166:7 4.28713e-05
16 *108:11 *166:9 0.000240465
17 *122:195 *166:17 0
*RES
1 *874:gpio_analog_pol[3] *166:7 0.556167 
2 *166:7 *166:9 51.0702 
3 *166:9 *166:13 48.201 
4 *166:13 *166:15 3.41 
5 *166:15 *166:17 319.493 
6 *166:17 gpio_analog_pol[3] 0.226383 
*END

*D_NET *167 0.173659
*CONN
*P gpio_analog_pol[40] O
*I *874:gpio_analog_pol[40] O *D counter_gpio_config_example
*CAP
1 gpio_analog_pol[40] 0.000217151
2 *874:gpio_analog_pol[40] 0.000167605
3 *167:13 0.0408522
4 *167:11 0.040635
5 *167:9 0.0384541
6 *167:7 0.0386217
7 gpio_analog_pol[40] *212:13 0.000438327
8 gpio_analog_pol[40] *563:19 6.9763e-05
9 *167:7 *286:11 4.87987e-05
10 *167:7 *399:7 4.31383e-05
11 *167:9 *182:11 0
12 *167:9 *286:11 0.000664304
13 *167:9 *399:7 5.66041e-06
14 *167:9 *399:9 0.013441
15 *167:13 *255:13 0
16 *167:13 *255:17 0
17 *167:13 *563:19 0
*RES
1 *874:gpio_analog_pol[40] *167:7 0.556167 
2 *167:7 *167:9 120.362 
3 *167:9 *167:11 3.41 
4 *167:11 *167:13 822.804 
5 *167:13 gpio_analog_pol[40] 8.36695 
*END

*D_NET *168 0.490802
*CONN
*P gpio_analog_pol[41] O
*I *874:gpio_analog_pol[41] O *D counter_gpio_config_example
*CAP
1 gpio_analog_pol[41] 0.000227291
2 *874:gpio_analog_pol[41] 0.00363059
3 *168:21 0.0228918
4 *168:19 0.0252176
5 *168:9 0.0249386
6 *168:7 0.0260161
7 gpio_analog_pol[41] gpio_dm0[41] 0
8 gpio_analog_pol[41] *564:14 0
9 *168:7 *215:7 0.000551132
10 *168:9 *349:9 0.00728326
11 *168:9 *457:21 2.11419e-05
12 *168:9 *529:9 0.0219889
13 *168:9 *821:13 0
14 *168:19 *296:9 0
15 *168:19 *340:13 7.62712e-05
16 *168:19 *344:33 0.000147572
17 *168:21 *212:13 0.0117629
18 *168:21 *296:13 0.00751469
19 *168:21 *344:35 0.136459
20 *168:21 *433:22 0
21 *102:9 *168:9 0.0441603
22 *125:19 *168:19 0.0023149
23 *125:21 *168:21 0.155396
24 *142:7 *168:7 0
25 *164:13 *168:19 2.41739e-05
26 *164:13 *168:21 0.000180678
*RES
1 *874:gpio_analog_pol[41] *168:7 11.2527 
2 *168:7 *168:9 802.768 
3 *168:9 *168:19 21.7114 
4 *168:19 *168:21 1470.48 
5 *168:21 gpio_analog_pol[41] 8.85714 
*END

*D_NET *169 0.262012
*CONN
*P gpio_analog_pol[42] O
*I *874:gpio_analog_pol[42] O *D counter_gpio_config_example
*CAP
1 gpio_analog_pol[42] 8.78055e-05
2 *874:gpio_analog_pol[42] 0.00315715
3 *169:25 0.00360876
4 *169:23 0.00358736
5 *169:21 0.00700188
6 *169:19 0.00693548
7 *169:17 0.0635825
8 *169:15 0.0635825
9 *169:13 0.0142755
10 *169:11 0.0174327
11 *169:11 *362:7 5.41024e-05
12 *169:11 *362:9 0.000809109
13 *169:11 *727:29 0
14 *169:13 *214:13 0.0111754
15 *169:13 *419:15 0.00214487
16 *169:13 *674:13 0
17 *169:13 *749:25 0.0359327
18 *169:17 *874:gpio_in[10] 0.00469537
19 *169:17 *443:15 0.0237866
20 *169:25 gpio_dm0[42] 0.000162448
21 *169:25 gpio_inp_dis[42] 0
22 *109:11 *169:11 0
*RES
1 *874:gpio_analog_pol[42] *169:11 11.9765 
2 *169:11 *169:13 502.232 
3 *169:13 *169:15 3.41 
4 *169:15 *169:17 198.374 
5 *169:17 *169:19 3.41 
6 *169:19 *169:21 138.393 
7 *169:21 *169:23 1.35714 
8 *169:23 *169:25 73.9286 
9 *169:25 gpio_analog_pol[42] 1.84821 
*END

*D_NET *170 0.249892
*CONN
*P gpio_analog_pol[43] O
*I *874:gpio_analog_pol[43] O *D counter_gpio_config_example
*CAP
1 gpio_analog_pol[43] 6.15062e-05
2 *874:gpio_analog_pol[43] 0.00340177
3 *170:21 0.0285136
4 *170:19 0.028452
5 *170:17 0.0864747
6 *170:15 0.0864747
7 *170:13 0.00161574
8 *170:11 0.00501751
9 *170:11 *337:11 0.000134747
10 *170:13 *214:13 0.00408007
11 *170:13 *674:13 0
12 *170:17 *221:11 0.00538316
13 *170:17 *385:9 0
14 *170:17 *551:9 0
15 *170:21 gpio_dm0[43] 0
16 *170:21 *566:14 0
17 *108:11 *170:11 0.000282797
18 *166:9 *170:11 0
*RES
1 *874:gpio_analog_pol[43] *170:11 12.1207 
2 *170:11 *170:13 50.5179 
3 *170:13 *170:15 3.41 
4 *170:15 *170:17 241.47 
5 *170:17 *170:19 3.41 
6 *170:19 *170:21 581.946 
7 *170:21 gpio_analog_pol[43] 1.29464 
*END

*D_NET *171 0.300037
*CONN
*P gpio_analog_pol[4] O
*I *874:gpio_analog_pol[4] O *D counter_gpio_config_example
*CAP
1 gpio_analog_pol[4] 0.00831593
2 *874:gpio_analog_pol[4] 0.00018082
3 *171:9 0.115067
4 *171:7 0.106932
5 gpio_analog_pol[4] gpio_dm0[4] 0.00193824
6 gpio_analog_pol[4] gpio_dm1[4] 0
7 gpio_analog_pol[4] gpio_ib_mode_sel[4] 0.00950894
8 gpio_analog_pol[4] *348:13 0.000141629
9 gpio_analog_pol[4] *567:31 0
10 *171:7 *172:7 4.1194e-05
11 *171:7 *172:9 5.66041e-06
12 *171:7 *435:7 4.1194e-05
13 *171:9 *172:9 0.0169133
14 *171:9 *368:39 7.98938e-05
15 *171:9 *435:7 5.66041e-06
16 *171:9 *435:9 0.04086
17 gpio_analog_en[4] gpio_analog_pol[4] 5.75583e-06
*RES
1 *874:gpio_analog_pol[4] *171:7 0.556167 
2 *171:7 *171:9 362.686 
3 *171:9 gpio_analog_pol[4] 36.4652 
*END

*D_NET *172 0.316856
*CONN
*P gpio_analog_pol[5] O
*I *874:gpio_analog_pol[5] O *D counter_gpio_config_example
*CAP
1 gpio_analog_pol[5] 0.000123411
2 *874:gpio_analog_pol[5] 0.00018082
3 *172:17 0.0805485
4 *172:15 0.0804251
5 *172:13 0.0197179
6 *172:11 0.0197179
7 *172:9 0.0460287
8 *172:7 0.0462095
9 *172:7 *363:7 4.1194e-05
10 *172:7 *363:9 5.66041e-06
11 *172:9 *363:9 0.00552805
12 *172:9 *368:39 0.000143426
13 *172:17 gpio_dm0[5] 0.000392882
14 *172:17 gpio_inp_dis[5] 0.000833007
15 gpio_analog_en[5] *172:17 0
16 *128:21 *172:17 0
17 *171:7 *172:7 4.1194e-05
18 *171:7 *172:9 5.66041e-06
19 *171:9 *172:9 0.0169133
*RES
1 *874:gpio_analog_pol[5] *172:7 0.556167 
2 *172:7 *172:9 151.819 
3 *172:9 *172:11 3.41 
4 *172:11 *172:13 57.0423 
5 *172:13 *172:15 3.41 
6 *172:15 *172:17 218.744 
7 *172:17 gpio_analog_pol[5] 0.414383 
*END

*D_NET *173 0.685286
*CONN
*P gpio_analog_pol[6] O
*I *874:gpio_analog_pol[6] O *D counter_gpio_config_example
*CAP
1 gpio_analog_pol[6] 4.29048e-05
2 *874:gpio_analog_pol[6] 0.00315756
3 *173:13 0.126042
4 *173:11 0.125999
5 *173:9 0.0163457
6 *173:7 0.0195033
7 *173:7 *416:7 0.000684174
8 *173:7 *529:7 0.00068257
9 *173:9 *260:9 0.0427861
10 *173:9 *349:9 0.0617566
11 *173:9 *691:13 0
12 *173:13 gpio_dm0[6] 0
13 *173:13 gpio_inp_dis[6] 0.00192509
14 *173:13 *569:25 0.286361
15 *129:13 *173:13 0
*RES
1 *874:gpio_analog_pol[6] *173:7 11.3969 
2 *173:7 *173:9 771.196 
3 *173:9 *173:11 3.41 
4 *173:11 *173:13 472.599 
5 *173:13 gpio_analog_pol[6] 0.132383 
*END

*D_NET *174 0.689547
*CONN
*P gpio_analog_pol[7] O
*I *874:gpio_analog_pol[7] O *D counter_gpio_config_example
*CAP
1 gpio_analog_pol[7] 0.00109233
2 *874:gpio_analog_pol[7] 0.00306531
3 *174:13 0.173769
4 *174:11 0.172677
5 *174:9 0.0487751
6 *174:7 0.0518404
7 gpio_analog_pol[7] gpio_dm0[7] 0.00194297
8 gpio_analog_pol[7] gpio_inp_dis[7] 0.000395582
9 *174:7 *302:7 4.71276e-05
10 *174:7 *440:7 0
11 *174:9 *197:9 0.0530113
12 *174:9 *204:9 0.00340044
13 *174:9 *249:9 0.0304683
14 *174:9 *283:17 0.0870709
15 *174:9 *377:17 5.4395e-05
16 *174:13 gpio_dm0[7] 0.00712712
17 gpio_analog_en[35] *174:9 0.00430994
18 gpio_analog_en[7] *174:13 0
19 *95:9 *174:9 0.0199362
20 *96:9 *174:9 0.0252849
21 *151:7 *174:7 0.000485962
22 *154:17 *174:9 0.00479322
*RES
1 *874:gpio_analog_pol[7] *174:7 10.2078 
2 *174:7 *174:9 282.786 
3 *174:9 *174:11 3.41 
4 *174:11 *174:13 468.228 
5 *174:13 gpio_analog_pol[7] 11.7274 
*END

*D_NET *175 0.504828
*CONN
*P gpio_analog_pol[8] O
*I *874:gpio_analog_pol[8] O *D counter_gpio_config_example
*CAP
1 gpio_analog_pol[8] 0.00949341
2 *874:gpio_analog_pol[8] 0.000162725
3 *175:13 0.114035
4 *175:11 0.104541
5 *175:9 0.124649
6 *175:7 0.124812
7 gpio_analog_pol[8] gpio_dm0[8] 0
8 gpio_analog_pol[8] gpio_inp_dis[8] 0.000391042
9 gpio_analog_pol[8] *571:26 0.0183937
10 *175:7 *231:7 3.6865e-05
11 *175:7 *436:11 4.19118e-05
12 *175:9 *231:7 5.04678e-06
13 *175:9 *231:9 0.00612756
14 *175:9 *312:9 0
15 *175:9 *436:11 0.0021382
*RES
1 *874:gpio_analog_pol[8] *175:7 0.556167 
2 *175:7 *175:9 337.607 
3 *175:9 *175:11 3.41 
4 *175:11 *175:13 307.822 
5 *175:13 gpio_analog_pol[8] 36.6367 
*END

*D_NET *176 0.597175
*CONN
*P gpio_analog_pol[9] O
*I *874:gpio_analog_pol[9] O *D counter_gpio_config_example
*CAP
1 gpio_analog_pol[9] 0.00274426
2 *874:gpio_analog_pol[9] 0.00104522
3 *176:21 0.0654277
4 *176:19 0.0626834
5 *176:17 0.0946785
6 *176:15 0.0946785
7 *176:13 0.0418591
8 *176:11 0.0429044
9 gpio_analog_pol[9] gpio_dm0[9] 0.000395582
10 gpio_analog_pol[9] gpio_inp_dis[9] 0.000533945
11 gpio_analog_pol[9] *572:9 5.64774e-06
12 *176:11 *265:7 0
13 *176:11 *265:9 0
14 *176:11 *370:13 0.000110051
15 *176:11 *378:21 0.000336751
16 *176:11 *410:19 0
17 *176:11 *546:13 0.000118344
18 *176:13 *205:17 7.53704e-05
19 *176:13 *286:19 0
20 *176:13 *326:19 8.57736e-06
21 *176:13 *372:23 8.52114e-05
22 *176:13 *410:19 0.00156992
23 *176:13 *567:31 0
24 *176:13 *740:18 0.0248664
25 *176:21 *572:9 0
26 *132:13 gpio_analog_pol[9] 0.000267868
27 *132:13 *176:21 0.16278
*RES
1 *874:gpio_analog_pol[9] *176:11 2.15417 
2 *176:11 *176:13 105.408 
3 *176:13 *176:15 3.41 
4 *176:15 *176:17 278.525 
5 *176:17 *176:19 3.41 
6 *176:19 *176:21 257.902 
7 *176:21 gpio_analog_pol[9] 7.27325 
*END

*D_NET *177 0.351742
*CONN
*P gpio_analog_sel[0] O
*I *874:gpio_analog_sel[0] O *D counter_gpio_config_example
*CAP
1 gpio_analog_sel[0] 0.00287957
2 *874:gpio_analog_sel[0] 0.00587466
3 *177:17 0.134448
4 *177:15 0.131569
5 *177:13 0.0254149
6 *177:11 0.0312896
7 gpio_analog_sel[0] gpio_dm2[0] 0.00211331
8 gpio_analog_sel[0] gpio_holdover[0] 0
9 *177:11 *214:11 7.25447e-05
10 *177:11 *376:11 0.000840194
11 *177:11 *419:17 0.002291
12 *177:11 *683:17 0
13 *177:11 *815:21 0.00111907
14 *177:13 *258:13 0.0107183
15 *177:13 *430:15 0.00311171
16 *177:17 gpio_holdover[0] 0
17 *177:17 *705:45 0
18 *130:13 *177:13 0
*RES
1 *874:gpio_analog_sel[0] *177:11 22.6064 
2 *177:11 *177:13 73.0223 
3 *177:13 *177:15 3.41 
4 *177:15 *177:17 345.535 
5 *177:17 gpio_analog_sel[0] 7.18395 
*END

*D_NET *178 0.847312
*CONN
*P gpio_analog_sel[10] O
*I *874:gpio_analog_sel[10] O *D counter_gpio_config_example
*CAP
1 gpio_analog_sel[10] 0.00028858
2 *874:gpio_analog_sel[10] 0.00741341
3 *178:21 0.17658
4 *178:19 0.176292
5 *178:17 0.0330604
6 *178:15 0.0404738
7 *178:15 *184:7 0.000895301
8 *178:15 *193:9 0.00169349
9 *178:15 *206:7 4.19174e-05
10 *178:15 *268:15 3.67115e-05
11 *178:15 *284:9 0.00833719
12 *178:15 *327:7 0
13 *178:15 *374:9 0.0083285
14 *178:15 *536:7 0
15 *178:17 *193:9 0.000116652
16 *178:17 *241:19 0.0097902
17 *178:17 *268:17 0.18557
18 *178:17 *304:9 0.00270746
19 *178:17 *374:9 0.0239513
20 *178:17 *440:9 0.165873
21 *178:21 *354:21 0
22 *178:21 *530:17 0
23 *178:21 *768:9 0
24 *107:9 *178:17 0.00265787
25 *162:9 *178:17 0.00320472
*RES
1 *874:gpio_analog_sel[10] *178:15 40.0625 
2 *178:15 *178:17 2285.41 
3 *178:17 *178:19 3.41 
4 *178:19 *178:21 475.698 
5 *178:21 gpio_analog_sel[10] 0.968983 
*END

*D_NET *179 0.996813
*CONN
*P gpio_analog_sel[11] O
*I *874:gpio_analog_sel[11] O *D counter_gpio_config_example
*CAP
1 gpio_analog_sel[11] 0.000159951
2 *874:gpio_analog_sel[11] 0.0082929
3 *179:21 0.126165
4 *179:19 0.126005
5 *179:17 0.0548117
6 *179:15 0.0631046
7 *179:15 *323:7 0.000188546
8 *179:15 *344:17 9.81677e-05
9 *179:15 *418:9 0.00828756
10 *179:15 *538:7 0
11 *179:15 *548:7 0
12 *179:17 *184:9 0.197563
13 *179:17 *241:9 0.123259
14 *179:21 gpio_dm2[11] 0
15 *179:21 *311:13 0.285992
16 *143:7 *179:15 5.45312e-05
17 *162:9 *179:15 0.00283235
*RES
1 *874:gpio_analog_sel[11] *179:15 39.5956 
2 *179:15 *179:17 2465.12 
3 *179:17 *179:19 3.41 
4 *179:19 *179:21 474.617 
5 *179:21 gpio_analog_sel[11] 0.530317 
*END

*D_NET *180 0.836405
*CONN
*P gpio_analog_sel[12] O
*I *874:gpio_analog_sel[12] O *D counter_gpio_config_example
*CAP
1 gpio_analog_sel[12] 2.97033e-05
2 *874:gpio_analog_sel[12] 0.00216084
3 *180:13 0.150381
4 *180:11 0.150352
5 *180:9 0.0747959
6 *180:7 0.0769567
7 *180:9 *194:9 0
8 *180:9 *244:9 0.0140713
9 *180:9 *426:9 0.000280861
10 *180:9 *733:13 0.00235979
11 *180:13 gpio_dm2[12] 0.00193339
12 *180:13 gpio_oeb[25] 0
13 *180:13 *312:17 0.148908
14 *93:17 *180:9 0.203835
15 *105:9 *180:9 0.00211424
16 *122:17 *180:9 0.00281555
17 *127:9 *180:9 0.00498414
18 *142:7 *180:7 6.04896e-05
19 *152:7 *180:7 0.000365822
*RES
1 *874:gpio_analog_sel[12] *180:7 8.0818 
2 *180:7 *180:9 2509.45 
3 *180:9 *180:11 3.41 
4 *180:11 *180:13 469.284 
5 *180:13 gpio_analog_sel[12] 0.09165 
*END

*D_NET *181 0.636201
*CONN
*P gpio_analog_sel[13] O
*I *874:gpio_analog_sel[13] O *D counter_gpio_config_example
*CAP
1 gpio_analog_sel[13] 0.00026733
2 *874:gpio_analog_sel[13] 0.000151962
3 *181:17 0.0396864
4 *181:15 0.0394191
5 *181:13 0.176683
6 *181:11 0.176683
7 *181:9 0.0925091
8 *181:7 0.0926611
9 *181:7 *277:11 4.19118e-05
10 *181:7 *530:7 4.72078e-05
11 *181:9 *277:11 0.00264041
12 *181:9 *386:9 0
13 *181:9 *530:7 6.89453e-06
14 *181:9 *530:9 0.015403
*RES
1 *874:gpio_analog_sel[13] *181:7 0.556167 
2 *181:7 *181:9 268.423 
3 *181:9 *181:11 3.41 
4 *181:11 *181:13 518.012 
5 *181:13 *181:15 3.41 
6 *181:15 *181:17 102.14 
7 *181:17 gpio_analog_sel[13] 0.82485 
*END

*D_NET *182 0.804308
*CONN
*P gpio_analog_sel[14] O
*I *874:gpio_analog_sel[14] O *D counter_gpio_config_example
*CAP
1 gpio_analog_sel[14] 8.52978e-05
2 *874:gpio_analog_sel[14] 0.0118988
3 *182:17 0.0878463
4 *182:15 0.087761
5 *182:13 0.196424
6 *182:11 0.208323
7 *182:11 *286:11 0.000583561
8 *182:13 *254:15 0.000237478
9 *182:17 gpio_dm2[14] 0.000391042
10 *182:17 *314:13 0.20792
11 *182:17 *358:17 0
12 *90:7 *182:11 3.33637e-05
13 *90:9 *182:11 0.00280345
14 *167:9 *182:11 0
*RES
1 *874:gpio_analog_sel[14] *182:11 36.7314 
2 *182:11 *182:13 576.712 
3 *182:13 *182:15 3.41 
4 *182:15 *182:17 337.798 
5 *182:17 gpio_analog_sel[14] 0.27965 
*END

*D_NET *183 1.0442
*CONN
*P gpio_analog_sel[15] O
*I *874:gpio_analog_sel[15] O *D counter_gpio_config_example
*CAP
1 gpio_analog_sel[15] 0.000907022
2 *874:gpio_analog_sel[15] 0.00478224
3 *183:21 0.089625
4 *183:19 0.0898926
5 *183:9 0.121034
6 *183:7 0.124642
7 gpio_analog_sel[15] gpio_dm2[15] 0
8 *183:7 *196:7 0
9 *183:7 *244:7 0.000397194
10 *183:7 *283:7 0.000468037
11 *183:9 *191:9 0.307215
12 *183:9 *193:17 0.0630057
13 *183:9 *196:9 0.00237678
14 *183:9 *247:9 0.00390792
15 *183:9 *469:11 0
16 *183:9 *822:10 0
17 *183:19 *184:19 0.000686535
18 *183:19 *272:19 0.000715142
19 *183:21 gpio_dm2[19] 0.000465282
20 *183:21 *189:13 0.00460139
21 *183:21 *272:21 0.21807
22 *183:21 *366:13 0.0106867
23 gpio_analog_pol[20] *183:21 0.000386123
24 *96:7 *183:7 0
25 *101:15 *183:19 0.000336812
*RES
1 *874:gpio_analog_sel[15] *183:7 15.5047 
2 *183:7 *183:9 3852.45 
3 *183:9 *183:19 20.3511 
4 *183:19 *183:21 2503.43 
5 *183:21 gpio_analog_sel[15] 22.4732 
*END

*D_NET *184 0.873684
*CONN
*P gpio_analog_sel[16] O
*I *874:gpio_analog_sel[16] O *D counter_gpio_config_example
*CAP
1 gpio_analog_sel[16] 0.000891026
2 *874:gpio_analog_sel[16] 0.00364799
3 *184:21 0.0663463
4 *184:19 0.0665356
5 *184:9 0.144343
6 *184:7 0.146911
7 gpio_analog_sel[16] gpio_dm2[16] 0
8 *184:7 *327:7 0.000896926
9 *184:9 *241:9 0.00549053
10 *184:19 *272:19 0.00169514
11 *184:19 *274:9 0.000195308
12 *184:19 *279:13 0.000180085
13 *184:21 gpio_dm2[19] 0.000622595
14 *184:21 *189:13 0.0150312
15 *184:21 *272:21 0.215131
16 *184:21 *274:13 0.0064471
17 *184:21 *316:15 0
18 *184:21 *366:13 0.000123715
19 *95:9 *184:19 4.98307e-05
20 *96:13 *184:21 0
21 *178:15 *184:7 0.000895301
22 *179:17 *184:9 0.197563
23 *183:19 *184:19 0.000686535
*RES
1 *874:gpio_analog_sel[16] *184:7 13.3427 
2 *184:7 *184:9 3722.52 
3 *184:9 *184:19 19.2089 
4 *184:19 *184:21 2036.45 
5 *184:21 gpio_analog_sel[16] 22.625 
*END

*D_NET *185 0.469645
*CONN
*P gpio_analog_sel[17] O
*I *874:gpio_analog_sel[17] O *D counter_gpio_config_example
*CAP
1 gpio_analog_sel[17] 0.00499425
2 *874:gpio_analog_sel[17] 0.0150098
3 *185:19 0.00499425
4 *185:17 0.0652186
5 *185:15 0.0652186
6 *185:13 0.149444
7 *185:11 0.164454
8 gpio_analog_sel[17] gpio_dm2[17] 0
9 *185:11 *346:11 0
10 *185:11 *787:17 0
11 *185:17 *186:17 0
12 *114:19 *185:11 0.000311795
13 *145:11 *185:11 0
*RES
1 *874:gpio_analog_sel[17] *185:11 41.0915 
2 *185:11 *185:13 3073.48 
3 *185:13 *185:15 3.41 
4 *185:15 *185:17 179.277 
5 *185:17 *185:19 3.41 
6 *185:19 gpio_analog_sel[17] 100.848 
*END

*D_NET *186 0.469253
*CONN
*P gpio_analog_sel[18] O
*I *874:gpio_analog_sel[18] O *D counter_gpio_config_example
*CAP
1 gpio_analog_sel[18] 0.00543542
2 *874:gpio_analog_sel[18] 0.0140781
3 *186:19 0.00543542
4 *186:17 0.0394899
5 *186:15 0.0394899
6 *186:13 0.172036
7 *186:11 0.186114
8 gpio_analog_sel[18] gpio_dm2[18] 0
9 *186:11 *555:11 0.0010431
10 *186:17 *187:17 0
11 *186:17 *403:17 0
12 *103:11 *186:11 0.000451997
13 *144:10 *186:11 0.00567862
14 *185:17 *186:17 0
*RES
1 *874:gpio_analog_sel[18] *186:11 42.1725 
2 *186:11 *186:13 3528.84 
3 *186:13 *186:15 3.41 
4 *186:15 *186:17 108.507 
5 *186:17 *186:19 3.41 
6 *186:19 gpio_analog_sel[18] 106.92 
*END

*D_NET *187 0.55393
*CONN
*P gpio_analog_sel[19] O
*I *874:gpio_analog_sel[19] O *D counter_gpio_config_example
*CAP
1 gpio_analog_sel[19] 0.00575403
2 *874:gpio_analog_sel[19] 0.00732949
3 *187:19 0.00575403
4 *187:17 0.0168334
5 *187:15 0.0168334
6 *187:13 0.0987939
7 *187:11 0.106123
8 gpio_analog_sel[19] gpio_dm2[19] 0
9 *187:11 *218:7 4.1194e-05
10 *187:11 *218:9 0.00201377
11 *187:11 *292:11 0.00024765
12 *187:11 *540:11 0
13 *187:11 *738:25 0
14 *187:13 *390:13 0.00416345
15 *187:13 *409:13 0.262712
16 *187:17 *805:25 0.00231042
17 *130:13 *187:13 0.0250202
18 *186:17 *187:17 0
*RES
1 *874:gpio_analog_sel[19] *187:11 23.8675 
2 *187:11 *187:13 3234.98 
3 *187:13 *187:15 3.41 
4 *187:15 *187:17 47.0345 
5 *187:17 *187:19 3.41 
6 *187:19 gpio_analog_sel[19] 112.384 
*END

*D_NET *188 0.349709
*CONN
*P gpio_analog_sel[1] O
*I *874:gpio_analog_sel[1] O *D counter_gpio_config_example
*CAP
1 gpio_analog_sel[1] 0.00345501
2 *874:gpio_analog_sel[1] 0.000181396
3 *188:13 0.0200129
4 *188:11 0.0165579
5 *188:9 0.114532
6 *188:7 0.114714
7 gpio_analog_sel[1] gpio_dm2[1] 0.000395099
8 gpio_analog_sel[1] *364:17 0.0011814
9 *188:7 *230:7 4.54925e-05
10 *188:7 *415:11 4.1194e-05
11 *188:9 *230:9 0
12 *188:9 *415:11 0.000462089
13 *188:9 *694:17 0.0406447
14 *188:13 gpio_inp_dis[2] 0
15 *188:13 *348:13 0.00435511
16 *188:13 *483:11 0.00158223
17 gpio_analog_pol[1] *188:13 0.00477105
18 *89:13 *188:13 0.026777
19 *100:9 *188:9 0
*RES
1 *874:gpio_analog_sel[1] *188:7 0.556167 
2 *188:7 *188:9 362.686 
3 *188:9 *188:11 3.41 
4 *188:11 *188:13 75.3661 
5 *188:13 gpio_analog_sel[1] 12.1512 
*END

*D_NET *189 0.925647
*CONN
*P gpio_analog_sel[20] O
*I *874:gpio_analog_sel[20] O *D counter_gpio_config_example
*CAP
1 gpio_analog_sel[20] 0.000940356
2 *874:gpio_analog_sel[20] 0.00251675
3 *189:13 0.0241077
4 *189:11 0.0231674
5 *189:9 0.0465018
6 *189:7 0.0490185
7 gpio_analog_sel[20] gpio_dm2[20] 0
8 gpio_analog_sel[20] *321:13 0
9 *189:7 *217:7 0.000459222
10 *189:7 *233:7 0.000162979
11 *189:9 *402:9 0.270675
12 *189:9 *779:18 0.00616868
13 *189:13 gpio_ib_mode_sel[20] 0
14 *189:13 *272:21 0.0162084
15 *189:13 *366:13 0.0527427
16 gpio_analog_pol[20] *189:13 0.000779675
17 *99:9 *189:9 0.280056
18 *101:17 *189:13 0.0784025
19 *105:17 *189:9 0.0541076
20 *152:7 *189:7 0
21 *183:21 *189:13 0.00460139
22 *184:21 *189:13 0.0150312
*RES
1 *874:gpio_analog_sel[20] *189:7 9.09073 
2 *189:7 *189:9 3447.48 
3 *189:9 *189:11 3.41 
4 *189:11 *189:13 126.236 
5 *189:13 gpio_analog_sel[20] 22.1421 
*END

*D_NET *190 0.47573
*CONN
*P gpio_analog_sel[21] O
*I *874:gpio_analog_sel[21] O *D counter_gpio_config_example
*CAP
1 gpio_analog_sel[21] 8.83825e-05
2 *874:gpio_analog_sel[21] 0.000317187
3 *190:33 0.155741
4 *190:31 0.155653
5 *190:29 0.00707275
6 *190:27 0.00736425
7 *190:23 0.00808386
8 *190:19 0.00904643
9 *190:9 0.00524727
10 *190:7 0.00431039
11 gpio_analog_sel[21] gpio_dm2[21] 0
12 *190:7 *329:7 4.82399e-05
13 *190:7 *412:7 4.82399e-05
14 *190:9 *391:9 0.00496044
15 *190:9 *532:19 0.000940834
16 *190:19 *664:18 0
17 *190:23 *215:33 0.000185946
18 *190:23 *381:17 0.00960966
19 *190:23 *542:17 0.0198287
20 *190:23 *742:9 0.00732323
21 *190:23 *783:13 0.000318385
22 *190:27 *675:5 0
23 *190:29 *542:21 0.0218876
24 *190:29 *743:17 0.00583259
25 *190:33 *322:17 0
26 *190:33 *468:19 0.00013668
27 *104:27 *190:23 0.00111571
28 *132:9 *190:19 0.000263954
29 *135:11 *190:19 0.00225136
30 *142:9 *190:9 0.0231717
31 *143:9 *190:9 0.0248825
*RES
1 *874:gpio_analog_sel[21] *190:7 4.11813 
2 *190:7 *190:9 306.277 
3 *190:9 *190:19 43.9189 
4 *190:19 *190:23 47.6339 
5 *190:23 *190:27 9.33036 
6 *190:27 *190:29 207.125 
7 *190:29 *190:31 4.5 
8 *190:31 *190:33 3134.35 
9 *190:33 gpio_analog_sel[21] 1.60714 
*END

*D_NET *191 0.836227
*CONN
*P gpio_analog_sel[22] O
*I *874:gpio_analog_sel[22] O *D counter_gpio_config_example
*CAP
1 gpio_analog_sel[22] 0.000113356
2 *874:gpio_analog_sel[22] 0.00491647
3 *191:13 0.00721957
4 *191:11 0.00710622
5 *191:9 0.0555378
6 *191:7 0.0604543
7 gpio_analog_sel[22] gpio_dm2[22] 0
8 *191:7 *248:7 0.000969735
9 *191:7 *391:7 5.23905e-05
10 *191:9 *193:17 0.0207551
11 *191:9 *196:9 0.0258314
12 *191:9 *247:9 0.0154275
13 *191:9 *314:9 0.281963
14 *191:9 *469:11 0
15 *191:13 gpio_dm1[23] 0.0103944
16 *99:13 *191:13 0.00722186
17 *102:13 *191:13 0.0310498
18 *183:9 *191:9 0.307215
*RES
1 *874:gpio_analog_sel[22] *191:7 15.5767 
2 *191:7 *191:9 3803.88 
3 *191:9 *191:11 3.41 
4 *191:11 *191:13 52.2233 
5 *191:13 gpio_analog_sel[22] 5.29393 
*END

*D_NET *192 0.619573
*CONN
*P gpio_analog_sel[23] O
*I *874:gpio_analog_sel[23] O *D counter_gpio_config_example
*CAP
1 gpio_analog_sel[23] 0.00220534
2 *874:gpio_analog_sel[23] 0.000106214
3 *192:17 0.0417162
4 *192:15 0.0395109
5 *192:13 0.0349351
6 *192:11 0.0349351
7 *192:9 0.0563922
8 *192:7 0.0564984
9 gpio_analog_sel[23] gpio_dm2[23] 0
10 *192:9 *236:9 0.207681
11 *192:9 *237:9 0.0359269
12 *192:9 *245:9 0.109592
13 *192:13 *710:17 0
14 *192:17 *324:17 0
15 *89:7 *192:7 3.60787e-05
16 *136:7 *192:7 3.76869e-05
*RES
1 *874:gpio_analog_sel[23] *192:7 3.7578 
2 *192:7 *192:9 2565 
3 *192:9 *192:11 3.41 
4 *192:11 *192:13 94.3102 
5 *192:13 *192:15 3.41 
6 *192:15 *192:17 816.786 
7 *192:17 gpio_analog_sel[23] 42.9732 
*END

*D_NET *193 0.635414
*CONN
*P gpio_analog_sel[24] O
*I *874:gpio_analog_sel[24] O *D counter_gpio_config_example
*CAP
1 gpio_analog_sel[24] 0.00817186
2 *874:gpio_analog_sel[24] 0.00418985
3 *193:17 0.148525
4 *193:15 0.140668
5 *193:9 0.0211711
6 *193:7 0.0250465
7 gpio_analog_sel[24] gpio_dm2[24] 0
8 gpio_analog_sel[24] *314:13 0
9 *193:7 *354:15 0.00113674
10 *193:9 *268:17 0
11 *193:9 *284:9 0.00357534
12 *193:9 *304:9 0.0190852
13 *193:9 *374:9 0.00142551
14 *193:9 *822:10 0.000831002
15 *193:17 *196:9 0.0437476
16 *193:17 *247:9 0.0248339
17 *193:17 *284:9 0.0611558
18 *193:17 *314:9 0.0366519
19 *193:17 *328:9 2.69599e-06
20 gpio_analog_pol[36] *193:15 0
21 *99:7 *193:7 0
22 *107:9 *193:9 0.00726115
23 *107:9 *193:17 0.00168696
24 *141:7 *193:7 3.69433e-05
25 *150:9 *193:17 0
26 *162:9 *193:9 0.000639871
27 *178:15 *193:9 0.00169349
28 *178:17 *193:9 0.000116652
29 *183:9 *193:17 0.0630057
30 *191:9 *193:17 0.0207551
*RES
1 *874:gpio_analog_sel[24] *193:7 14.7119 
2 *193:7 *193:9 518.018 
3 *193:9 *193:15 7.55163 
4 *193:15 *193:17 568.828 
5 *193:17 gpio_analog_sel[24] 23.074 
*END

*D_NET *194 0.432702
*CONN
*P gpio_analog_sel[25] O
*I *874:gpio_analog_sel[25] O *D counter_gpio_config_example
*CAP
1 gpio_analog_sel[25] 0.00929083
2 *874:gpio_analog_sel[25] 0.00241414
3 *194:9 0.0842794
4 *194:7 0.0774027
5 gpio_analog_sel[25] gpio_dm2[25] 0.000465675
6 gpio_analog_sel[25] *326:25 0.00328653
7 *194:7 gpio_ib_mode_sel[36] 0
8 *194:7 *215:7 0.000332079
9 *194:9 *244:9 0.0305712
10 *194:9 *369:9 0.204822
11 *194:9 *733:13 0.00621627
12 *194:9 *778:13 0.00444252
13 *93:17 *194:9 0
14 *105:17 *194:9 0.00833495
15 *122:17 *194:9 0.000843641
16 *180:9 *194:9 0
*RES
1 *874:gpio_analog_sel[25] *194:7 8.37007 
2 *194:7 *194:9 2521.59 
3 *194:9 gpio_analog_sel[25] 30.7773 
*END

*D_NET *195 0.529251
*CONN
*P gpio_analog_sel[26] O
*I *874:gpio_analog_sel[26] O *D counter_gpio_config_example
*CAP
1 gpio_analog_sel[26] 0.00135091
2 *874:gpio_analog_sel[26] 0.000177733
3 *195:13 0.0474
4 *195:11 0.0460491
5 *195:9 0.0660047
6 *195:7 0.0661824
7 gpio_analog_sel[26] gpio_dm2[26] 0.000492821
8 *195:7 *211:11 3.33326e-05
9 *195:7 *326:11 3.55467e-05
10 *195:9 *200:13 0.113166
11 *195:9 *234:13 0.000333729
12 *195:9 *237:9 0.176287
13 *195:9 *368:57 0
14 *195:13 gpio_dm2[26] 0.00538863
15 *195:13 gpio_holdover[26] 0.000105236
16 *195:13 *723:9 0
17 *158:11 *195:9 0.00624362
*RES
1 *874:gpio_analog_sel[26] *195:7 3.81463 
2 *195:7 *195:9 378.187 
3 *195:9 *195:11 3.41 
4 *195:11 *195:13 122.957 
5 *195:13 gpio_analog_sel[26] 12.5108 
*END

*D_NET *196 0.583742
*CONN
*P gpio_analog_sel[27] O
*I *874:gpio_analog_sel[27] O *D counter_gpio_config_example
*CAP
1 gpio_analog_sel[27] 0.00594791
2 *874:gpio_analog_sel[27] 0.00441027
3 *196:9 0.0781605
4 *196:7 0.0766229
5 gpio_analog_sel[27] gpio_dm2[27] 0.0116119
6 gpio_analog_sel[27] gpio_holdover[27] 0
7 gpio_analog_sel[27] *372:29 0
8 *196:7 *283:7 0.000468037
9 *196:7 *306:7 0.00124978
10 *196:9 *247:9 0.067799
11 *196:9 *268:15 0
12 *196:9 *284:9 0
13 *196:9 *314:9 0.0542331
14 *196:9 *328:9 0.211282
15 *183:7 *196:7 0
16 *183:9 *196:9 0.00237678
17 *191:9 *196:9 0.0258314
18 *193:17 *196:9 0.0437476
*RES
1 *874:gpio_analog_sel[27] *196:7 15.829 
2 *196:7 *196:9 452.174 
3 *196:9 gpio_analog_sel[27] 31.0798 
*END

*D_NET *197 0.392406
*CONN
*P gpio_analog_sel[28] O
*I *874:gpio_analog_sel[28] O *D counter_gpio_config_example
*CAP
1 gpio_analog_sel[28] 0.0103601
2 *874:gpio_analog_sel[28] 0.00319756
3 *197:9 0.0617919
4 *197:7 0.0546293
5 gpio_analog_sel[28] gpio_dm2[28] 0
6 gpio_analog_sel[28] gpio_holdover[28] 0
7 *197:7 *224:7 0.000109002
8 *197:7 *565:7 0.000503493
9 *197:9 *249:9 0.0225627
10 *197:9 *274:9 0.000138802
11 *197:9 *283:17 0.0137248
12 *197:9 *325:9 0.163157
13 *197:9 *470:11 0.0019655
14 *95:9 *197:9 0.00725514
15 *123:7 *197:7 0
16 *174:9 *197:9 0.0530113
*RES
1 *874:gpio_analog_sel[28] *197:7 10.496 
2 *197:7 *197:9 348.944 
3 *197:9 gpio_analog_sel[28] 28.031 
*END

*D_NET *198 0.387071
*CONN
*P gpio_analog_sel[29] O
*I *874:gpio_analog_sel[29] O *D counter_gpio_config_example
*CAP
1 gpio_analog_sel[29] 0.00488426
2 *874:gpio_analog_sel[29] 0.00701855
3 *198:9 0.0875922
4 *198:7 0.0897265
5 gpio_analog_sel[29] gpio_dm2[29] 0.000657891
6 gpio_analog_sel[29] *330:33 0.000509367
7 *198:7 *259:15 1.47728e-05
8 *198:7 *285:7 0.00177149
9 *198:7 *550:7 0.00185097
10 *198:7 *554:7 0
11 *198:9 *285:9 0
12 *198:9 *327:9 0.163126
13 *198:9 *538:9 0.0299184
*RES
1 *874:gpio_analog_sel[29] *198:7 23.3239 
2 *198:7 *198:9 348.944 
3 *198:9 gpio_analog_sel[29] 15.4537 
*END

*D_NET *199 0.564422
*CONN
*P gpio_analog_sel[2] O
*I *874:gpio_analog_sel[2] O *D counter_gpio_config_example
*CAP
1 gpio_analog_sel[2] 0.0056249
2 *874:gpio_analog_sel[2] 4.9608e-05
3 *199:15 0.0179374
4 *199:11 0.182217
5 *199:9 0.169954
6 gpio_analog_sel[2] *727:29 0
7 *199:11 *210:10 0.17781
8 *199:15 *353:13 0.00934483
9 *92:13 *199:15 0.00148544
*RES
1 *874:gpio_analog_sel[2] *199:9 3.92003 
2 *199:9 *199:11 51.4525 
3 *199:11 *199:15 47.8343 
4 *199:15 gpio_analog_sel[2] 16.1164 
*END

*D_NET *200 0.448939
*CONN
*P gpio_analog_sel[30] O
*I *874:gpio_analog_sel[30] O *D counter_gpio_config_example
*CAP
1 gpio_analog_sel[30] 0.00111706
2 *874:gpio_analog_sel[30] 0.00150788
3 *200:17 0.0480101
4 *200:15 0.046893
5 *200:13 0.0752302
6 *200:11 0.0767381
7 gpio_analog_sel[30] gpio_dm2[30] 0.00167853
8 gpio_analog_sel[30] *462:15 0.000103722
9 *200:11 *270:7 3.98559e-05
10 *200:11 *335:11 4.74967e-05
11 *200:13 *237:9 0.0120332
12 *200:13 *368:57 0.0102197
13 *200:13 *425:13 0.0007787
14 *200:17 gpio_dm2[30] 0.00433715
15 *200:17 gpio_out[30] 0
16 *120:8 *200:13 2.97834e-05
17 *120:10 *200:11 0.00120452
18 *120:10 *200:13 0.00210802
19 *160:15 *200:11 0.000836077
20 *160:17 *200:11 0.000805304
21 *160:17 *200:13 0.0520544
22 *195:9 *200:13 0.113166
*RES
1 *874:gpio_analog_sel[30] *200:11 9.02166 
2 *200:11 *200:13 312.55 
3 *200:13 *200:15 3.41 
4 *200:15 *200:17 123.029 
5 *200:17 gpio_analog_sel[30] 11.3059 
*END

*D_NET *201 0.383335
*CONN
*P gpio_analog_sel[31] O
*I *874:gpio_analog_sel[31] O *D counter_gpio_config_example
*CAP
1 gpio_analog_sel[31] 0.00810177
2 *874:gpio_analog_sel[31] 0.00623542
3 *201:9 0.0605456
4 *201:7 0.0586792
5 gpio_analog_sel[31] gpio_dm2[31] 0
6 *201:7 *264:7 0
7 *201:7 *288:7 0
8 *201:7 *665:20 4.18099e-06
9 *201:9 *220:17 0.00901602
10 *201:9 *272:9 0.0173518
11 *201:9 *288:9 0.132705
12 *201:9 *379:13 0.0586302
13 *201:9 *383:9 0.00636119
14 *201:9 *396:15 0.00115073
15 *201:9 *396:17 0.0245538
16 *135:9 *201:7 0
17 *150:9 *201:9 0
*RES
1 *874:gpio_analog_sel[31] *201:7 16.982 
2 *201:7 *201:9 284.065 
3 *201:9 gpio_analog_sel[31] 21.6577 
*END

*D_NET *202 0.270137
*CONN
*P gpio_analog_sel[32] O
*I *874:gpio_analog_sel[32] O *D counter_gpio_config_example
*CAP
1 gpio_analog_sel[32] 0.00523975
2 *874:gpio_analog_sel[32] 0.00588473
3 *202:9 0.0444826
4 *202:7 0.0451276
5 gpio_analog_sel[32] *334:17 0.00109495
6 *202:7 *424:7 0.0020325
7 *202:9 *285:9 0.0848873
8 *202:9 *327:9 0
9 *202:9 *413:17 0.00160462
10 *202:9 *414:9 0.00163557
11 *119:11 *202:9 0.00791652
12 *150:7 *202:7 0.00132014
13 *159:9 *202:9 0.0689106
14 *163:9 *202:9 0
*RES
1 *874:gpio_analog_sel[32] *202:7 22.4591 
2 *202:7 *202:9 229.839 
3 *202:9 gpio_analog_sel[32] 16.2621 
*END

*D_NET *203 0.198084
*CONN
*P gpio_analog_sel[33] O
*I *874:gpio_analog_sel[33] O *D counter_gpio_config_example
*CAP
1 gpio_analog_sel[33] 0.00273019
2 *874:gpio_analog_sel[33] 0.00196712
3 *203:17 0.0539989
4 *203:15 0.0512687
5 *203:13 0.0287285
6 *203:11 0.0306956
7 gpio_analog_sel[33] gpio_dm2[33] 0.000202297
8 gpio_analog_sel[33] gpio_holdover[33] 0
9 gpio_analog_sel[33] gpio_out[33] 0
10 *203:11 gpio_dm1[36] 0.000288917
11 *203:11 *315:7 5.00587e-05
12 *203:11 *315:9 0.00042979
13 *203:11 *319:7 3.64239e-05
14 *203:11 *319:9 0.000432065
15 *203:13 *246:27 0.00594036
16 *203:13 *246:35 0.00717964
17 *203:13 *246:37 0.0138239
18 *203:17 gpio_holdover[33] 0
19 *203:17 gpio_out[33] 0
20 *203:17 *330:19 0
21 *152:15 *203:17 0.000311383
*RES
1 *874:gpio_analog_sel[33] *203:11 8.9137 
2 *203:11 *203:13 96.7793 
3 *203:13 *203:15 3.41 
4 *203:15 *203:17 125.155 
5 *203:17 gpio_analog_sel[33] 5.98075 
*END

*D_NET *204 0.17731
*CONN
*P gpio_analog_sel[34] O
*I *874:gpio_analog_sel[34] O *D counter_gpio_config_example
*CAP
1 gpio_analog_sel[34] 0.0114807
2 *874:gpio_analog_sel[34] 0.00215667
3 *204:9 0.0459823
4 *204:7 0.0366583
5 gpio_analog_sel[34] gpio_dm2[34] 0
6 gpio_analog_sel[34] *283:15 0.000286749
7 gpio_analog_sel[34] *380:17 0
8 gpio_analog_sel[34] *556:17 0
9 *204:7 *306:7 0.000584929
10 *204:7 *307:7 0.000590169
11 *204:9 *249:9 0
12 *204:9 *309:9 0.006275
13 *204:9 *325:9 0
14 *204:9 *377:9 0.00225987
15 *204:9 *377:17 0.0101285
16 *204:9 *471:11 0.00458599
17 gpio_analog_en[35] *204:9 0.00120975
18 *115:9 *204:9 0.051711
19 *174:9 *204:9 0.00340044
*RES
1 *874:gpio_analog_sel[34] *204:7 9.63123 
2 *204:7 *204:9 150.685 
3 *204:9 gpio_analog_sel[34] 29.1527 
*END

*D_NET *205 0.231328
*CONN
*P gpio_analog_sel[35] O
*I *874:gpio_analog_sel[35] O *D counter_gpio_config_example
*CAP
1 gpio_analog_sel[35] 0.0109822
2 *874:gpio_analog_sel[35] 0.00244155
3 *205:21 0.0120676
4 *205:19 0.00108538
5 *205:17 0.0287521
6 *205:15 0.0287521
7 *205:13 0.00528543
8 *205:11 0.00772698
9 gpio_analog_sel[35] gpio_dm2[35] 0.000215922
10 gpio_analog_sel[35] gpio_out[35] 0
11 *205:11 *293:11 0.000140517
12 *205:13 *246:27 0.00010283
13 *205:13 *282:13 0.0171839
14 *205:13 *415:13 0.00047516
15 *205:13 *479:11 0
16 *205:17 *286:19 0.000253401
17 *205:17 *372:23 0.00292446
18 *205:17 *377:15 0.000262786
19 *205:17 *410:19 0.00198762
20 *205:17 *553:16 0.0003437
21 *205:17 *661:17 0.00203904
22 *205:17 *672:11 0.0214296
23 *205:17 *691:9 0.0404062
24 *205:17 *694:9 0.00126451
25 *205:17 *695:8 0.000160957
26 *205:17 *696:8 0.000198585
27 *205:17 *705:35 0.0068823
28 *205:17 *716:17 0.00142961
29 *205:17 *716:19 0.00102755
30 *205:17 *787:9 3.51083e-05
31 *205:17 *793:11 0.00860687
32 *205:17 *822:8 0.00394816
33 *205:17 *823:6 0.00140601
34 *205:17 *825:8 5.36681e-05
35 *205:17 *826:12 0.00172512
36 *205:21 *349:9 0.005506
37 *94:11 *205:11 0
38 *102:9 *205:21 0.00550458
39 *122:195 *205:11 0.000557012
40 *124:11 *205:11 7.72146e-05
41 *146:17 *205:17 0.000613251
42 *148:13 *205:13 0.00739765
43 *176:13 *205:17 7.53704e-05
*RES
1 *874:gpio_analog_sel[35] *205:11 9.33086 
2 *205:11 *205:13 213.232 
3 *205:13 *205:15 3.41 
4 *205:15 *205:17 107.354 
5 *205:17 *205:19 3.41 
6 *205:19 *205:21 68.7321 
7 *205:21 gpio_analog_sel[35] 27.2132 
*END

*D_NET *206 0.0747246
*CONN
*P gpio_analog_sel[36] O
*I *874:gpio_analog_sel[36] O *D counter_gpio_config_example
*CAP
1 gpio_analog_sel[36] 0.00643182
2 *874:gpio_analog_sel[36] 0.00767957
3 *206:11 0.0150399
4 *206:7 0.0162877
5 gpio_analog_sel[36] gpio_dm2[36] 0.000526052
6 gpio_analog_sel[36] gpio_out[36] 0
7 *206:7 *247:7 0
8 *206:7 *304:7 0
9 *206:7 *542:7 0.000241773
10 *206:11 *242:9 0.00085829
11 *206:11 *280:9 0.00544797
12 *206:11 *307:9 0.00112918
13 *206:11 *366:9 0.00186758
14 *133:7 *206:7 0.000362442
15 *157:15 gpio_analog_sel[36] 0.000398461
16 *161:9 *206:11 0.0184119
17 *178:15 *206:7 4.19174e-05
*RES
1 *874:gpio_analog_sel[36] *206:7 21.0178 
2 *206:7 *206:11 42.8743 
3 *206:11 gpio_analog_sel[36] 14.5379 
*END

*D_NET *207 0.0363762
*CONN
*P gpio_analog_sel[37] O
*I *874:gpio_analog_sel[37] O *D counter_gpio_config_example
*CAP
1 gpio_analog_sel[37] 0.000841296
2 *874:gpio_analog_sel[37] 0.0130064
3 *207:9 0.00437816
4 *207:7 0.0165433
5 gpio_analog_sel[37] gpio_vtrip_sel[37] 0.000244125
6 *207:7 *349:7 0.000680375
7 *207:7 *366:7 0
8 *207:7 *529:7 0.00068257
9 *207:9 *427:21 0
10 *207:9 *558:20 0
*RES
1 *874:gpio_analog_sel[37] *207:7 33.3051 
2 *207:7 *207:9 69.3393 
3 *207:9 gpio_analog_sel[37] 5.51168 
*END

*D_NET *208 0.112519
*CONN
*P gpio_analog_sel[38] O
*I *874:gpio_analog_sel[38] O *D counter_gpio_config_example
*CAP
1 gpio_analog_sel[38] 2.333e-05
2 *874:gpio_analog_sel[38] 0.0132421
3 *208:40 0.00900108
4 *208:38 0.00969482
5 *208:32 0.0139807
6 *208:30 0.0265057
7 *208:30 *237:9 0
8 *208:30 *251:26 0.000157117
9 *208:30 *252:40 0.00516749
10 *208:30 *295:20 5.00204e-05
11 *208:32 *252:40 1.30486e-05
12 *208:32 *252:42 0.0255385
13 *208:38 *832:9 0.00116273
14 *208:38 *833:9 0.00222551
15 *208:40 gpio_dm2[38] 9.83492e-05
16 *208:40 *384:19 0.00275092
17 *208:40 *384:21 0
18 *120:8 *208:30 0.000189486
19 *120:10 *208:30 0.00271842
20 *120:10 *208:32 0
*RES
1 *874:gpio_analog_sel[38] *208:30 46.6406 
2 *208:30 *208:32 55.1247 
3 *208:32 *208:38 10.4343 
4 *208:38 *208:40 191.554 
5 *208:40 gpio_analog_sel[38] 0.491071 
*END

*D_NET *209 0.129095
*CONN
*P gpio_analog_sel[39] O
*I *874:gpio_analog_sel[39] O *D counter_gpio_config_example
*CAP
1 gpio_analog_sel[39] 0.000166703
2 *874:gpio_analog_sel[39] 0.000143181
3 *209:13 0.0333938
4 *209:11 0.0332271
5 *209:9 0.0258499
6 *209:7 0.0259931
7 *209:7 *353:7 4.72078e-05
8 *209:7 *543:11 6.08368e-05
9 *209:9 *353:7 8.12865e-06
10 *209:9 *353:9 0.00884433
11 *209:9 *430:13 0.00134526
12 *209:9 *543:11 1.50918e-05
13 *92:9 *209:9 0
*RES
1 *874:gpio_analog_sel[39] *209:7 0.39893 
2 *209:7 *209:9 79.8608 
3 *209:9 *209:11 3.41 
4 *209:11 *209:13 647.518 
5 *209:13 gpio_analog_sel[39] 3.50893 
*END

*D_NET *210 0.611686
*CONN
*P gpio_analog_sel[3] O
*I *874:gpio_analog_sel[3] O *D counter_gpio_config_example
*CAP
1 gpio_analog_sel[3] 0.00793359
2 *874:gpio_analog_sel[3] 0.000924943
3 *210:14 0.0310182
4 *210:12 0.0230846
5 *210:10 0.176521
6 *210:8 0.177446
7 gpio_analog_sel[3] gpio_dm2[3] 0.000316608
8 gpio_analog_sel[3] *738:25 0
9 *210:8 *664:16 0.000588692
10 *210:14 *303:13 0.0160422
11 *210:14 *437:13 0
12 *199:11 *210:10 0.17781
*RES
1 *874:gpio_analog_sel[3] *210:8 6.60687 
2 *210:8 *210:10 50.6659 
3 *210:10 *210:12 0.38 
4 *210:12 *210:14 83.6757 
5 *210:14 gpio_analog_sel[3] 22.7528 
*END

*D_NET *211 0.199523
*CONN
*P gpio_analog_sel[40] O
*I *874:gpio_analog_sel[40] O *D counter_gpio_config_example
*CAP
1 gpio_analog_sel[40] 6.23546e-05
2 *874:gpio_analog_sel[40] 0.0104014
3 *211:21 0.00317808
4 *211:19 0.00311573
5 *211:17 0.0360717
6 *211:15 0.0360717
7 *211:13 0.0450719
8 *211:11 0.0554733
9 *211:11 *267:11 0
10 *211:11 *326:11 0
11 *211:13 *400:13 0.00437599
12 *211:17 *432:19 0
13 *211:17 *696:14 0
14 *211:21 gpio_dm2[40] 0
15 *211:21 *343:21 0.00540766
16 *112:11 *211:11 0.000260062
17 *195:7 *211:11 3.33326e-05
*RES
1 *874:gpio_analog_sel[40] *211:11 28.1195 
2 *211:11 *211:13 907.804 
3 *211:13 *211:15 3.41 
4 *211:15 *211:17 99.0666 
5 *211:17 *211:19 3.41 
6 *211:19 *211:21 82.875 
7 *211:21 gpio_analog_sel[40] 1.3125 
*END

*D_NET *212 0.32254
*CONN
*P gpio_analog_sel[41] O
*I *874:gpio_analog_sel[41] O *D counter_gpio_config_example
*CAP
1 gpio_analog_sel[41] 7.75404e-05
2 *874:gpio_analog_sel[41] 0.000634429
3 *212:13 0.0667224
4 *212:11 0.0666448
5 *212:9 0.0150169
6 *212:7 0.0156513
7 gpio_analog_sel[41] gpio_dm2[41] 0
8 *212:7 *225:7 0.000138123
9 *212:7 *418:7 0
10 *212:9 *228:9 0.00146354
11 *212:9 *384:9 0.00204598
12 *212:13 gpio_slow_sel[38] 0.013933
13 *212:13 gpio_slow_sel[40] 0.000240676
14 *212:13 gpio_vtrip_sel[40] 0.000240676
15 *212:13 *296:13 0.00599175
16 *212:13 *300:13 0.0297667
17 *212:13 *340:17 0.000390832
18 *212:13 *344:35 0.00020357
19 *212:13 *473:5 0.000229619
20 *212:13 *739:9 0.0122694
21 gpio_analog_pol[40] *212:13 0.000438327
22 *119:7 *212:7 0
23 *123:13 *212:13 0.0338844
24 *125:21 *212:13 0.0267545
25 *155:9 *212:9 0.00904587
26 *164:9 *212:9 0.00854348
27 *164:13 *212:13 0.000449083
28 *168:21 *212:13 0.0117629
*RES
1 *874:gpio_analog_sel[41] *212:7 5.055 
2 *212:7 *212:9 409.339 
3 *212:9 *212:11 3.41 
4 *212:11 *212:13 262.081 
5 *212:13 gpio_analog_sel[41] 4.92786 
*END

*D_NET *213 0.324981
*CONN
*P gpio_analog_sel[42] O
*I *874:gpio_analog_sel[42] O *D counter_gpio_config_example
*CAP
1 gpio_analog_sel[42] 0.000204879
2 *874:gpio_analog_sel[42] 0.00465533
3 *213:21 0.00543035
4 *213:19 0.00522547
5 *213:17 0.0586434
6 *213:15 0.0586434
7 *213:13 0.0307334
8 *213:11 0.0353888
9 gpio_analog_sel[42] gpio_out[42] 0.000247918
10 *213:11 *363:7 4.68544e-05
11 *213:11 *363:9 0.00113956
12 *213:11 *390:11 0.000997616
13 *213:13 *310:13 0.00420534
14 *213:17 *390:17 0
15 *213:17 *475:11 0.0653007
16 *213:21 *741:13 0
17 *94:13 *213:13 0.000667457
18 *121:13 *213:13 0.0534501
*RES
1 *874:gpio_analog_sel[42] *213:11 16.2285 
2 *213:11 *213:13 855.589 
3 *213:13 *213:15 3.41 
4 *213:15 *213:17 196.285 
5 *213:17 *213:19 3.41 
6 *213:19 *213:21 107.768 
7 *213:21 gpio_analog_sel[42] 4.3125 
*END

*D_NET *214 0.308139
*CONN
*P gpio_analog_sel[43] O
*I *874:gpio_analog_sel[43] O *D counter_gpio_config_example
*CAP
1 gpio_analog_sel[43] 0.000100531
2 *874:gpio_analog_sel[43] 0.00209768
3 *214:21 0.0182337
4 *214:19 0.0181331
5 *214:17 0.0691176
6 *214:15 0.0691176
7 *214:13 0.00376333
8 *214:11 0.005861
9 *214:11 *362:7 4.72078e-05
10 *214:11 *362:9 0.000824066
11 *214:11 *815:21 0.00479803
12 *214:13 *243:15 0.000271935
13 *214:13 *419:15 0.000348479
14 *214:13 *674:13 0
15 *214:13 *749:25 0.000270373
16 *214:17 *551:9 0.0543732
17 *214:21 gpio_dm2[43] 0
18 *214:21 *346:21 0.045453
19 *214:21 *742:13 0
20 *165:9 *214:17 0
21 *169:13 *214:13 0.0111754
22 *170:13 *214:13 0.00408007
23 *177:11 *214:11 7.25447e-05
*RES
1 *874:gpio_analog_sel[43] *214:11 12.0486 
2 *214:11 *214:13 144.625 
3 *214:13 *214:15 3.41 
4 *214:15 *214:17 243.776 
5 *214:17 *214:19 3.41 
6 *214:19 *214:21 575.875 
7 *214:21 gpio_analog_sel[43] 2.11607 
*END

*D_NET *215 0.47856
*CONN
*P gpio_analog_sel[4] O
*I *874:gpio_analog_sel[4] O *D counter_gpio_config_example
*CAP
1 gpio_analog_sel[4] 0.000364798
2 *874:gpio_analog_sel[4] 0.00415132
3 *215:35 0.0821965
4 *215:33 0.116082
5 *215:9 0.0436007
6 *215:7 0.0135018
7 gpio_analog_sel[4] gpio_dm2[4] 5.77053e-05
8 gpio_analog_sel[4] gpio_holdover[4] 5.54655e-05
9 *215:9 *217:9 0.000294003
10 *215:9 *259:17 0.0238714
11 *215:9 *421:9 0.0101007
12 *215:33 *233:19 0.000110532
13 *215:33 *293:17 0.00386257
14 *215:33 *337:17 0.00190909
15 *215:33 *338:17 0.00409299
16 *215:33 *381:17 0.00369703
17 *215:33 *427:17 0.00486935
18 *215:33 *542:17 0.00016281
19 *215:33 *557:17 0.00151417
20 *215:33 *743:17 0.000159502
21 *215:33 *779:16 0.0090767
22 *215:33 *829:16 8.75371e-05
23 *215:35 *234:17 0.00665797
24 *215:35 *391:21 0.131176
25 *103:17 *215:35 0
26 *104:27 *215:33 0.0078388
27 *117:17 *215:33 0.00401609
28 *117:17 *215:35 0.00398338
29 *168:7 *215:7 0.000551132
30 *190:23 *215:33 0.000185946
31 *194:7 *215:7 0.000332079
*RES
1 *874:gpio_analog_sel[4] *215:7 12.5499 
2 *215:7 *215:9 301.268 
3 *215:9 *215:33 28.652 
4 *215:33 *215:35 2303.82 
5 *215:35 gpio_analog_sel[4] 12.4611 
*END

*D_NET *216 0.32191
*CONN
*P gpio_analog_sel[5] O
*I *874:gpio_analog_sel[5] O *D counter_gpio_config_example
*CAP
1 gpio_analog_sel[5] 0.000214524
2 *874:gpio_analog_sel[5] 0.000212795
3 *216:17 0.0372214
4 *216:15 0.0515335
5 *216:9 0.104851
6 *216:7 0.090537
7 *216:7 *351:7 3.0855e-05
8 *216:7 *410:13 3.69206e-05
9 *216:9 *351:7 3.3599e-06
10 *216:9 *351:9 0.000393843
11 *216:9 *410:13 0.000240583
12 *216:9 *479:7 0.036634
13 *216:17 *392:17 0
*RES
1 *874:gpio_analog_sel[5] *216:7 0.39893 
2 *216:7 *216:9 275.918 
3 *216:9 *216:15 49.4803 
4 *216:15 *216:17 94.6455 
5 *216:17 gpio_analog_sel[5] 0.661917 
*END

*D_NET *217 0.680694
*CONN
*P gpio_analog_sel[6] O
*I *874:gpio_analog_sel[6] O *D counter_gpio_config_example
*CAP
1 gpio_analog_sel[6] 0.000113146
2 *874:gpio_analog_sel[6] 0.00380014
3 *217:13 0.119408
4 *217:11 0.119294
5 *217:9 0.0165746
6 *217:7 0.0203748
7 *217:7 *329:7 0.000740075
8 *217:9 *259:17 0.0258435
9 *217:9 *329:9 0.0586472
10 *217:9 *421:9 0.021287
11 *217:13 gpio_dm2[6] 0.00052999
12 *217:13 *349:13 0.293329
13 *217:13 *393:13 0
14 *217:13 *664:22 0
15 *189:7 *217:7 0.000459222
16 *215:9 *217:9 0.000294003
*RES
1 *874:gpio_analog_sel[6] *217:7 12.4058 
2 *217:7 *217:9 722.625 
3 *217:9 *217:11 3.41 
4 *217:11 *217:13 473.608 
5 *217:13 gpio_analog_sel[6] 0.379917 
*END

*D_NET *218 0.443286
*CONN
*P gpio_analog_sel[7] O
*I *874:gpio_analog_sel[7] O *D counter_gpio_config_example
*CAP
1 gpio_analog_sel[7] 0.000245991
2 *874:gpio_analog_sel[7] 0.00017948
3 *218:17 0.0887205
4 *218:15 0.0884745
5 *218:13 0.083415
6 *218:11 0.083415
7 *218:9 0.0447824
8 *218:7 0.0449619
9 *218:7 *320:7 4.1194e-05
10 *218:7 *320:9 5.66041e-06
11 *218:9 *226:9 0
12 *218:9 *320:9 0.00698951
13 *218:13 *358:13 0
14 *218:17 *350:19 0
15 *187:11 *218:7 4.1194e-05
16 *187:11 *218:9 0.00201377
*RES
1 *874:gpio_analog_sel[7] *218:7 0.556167 
2 *218:7 *218:9 131.064 
3 *218:9 *218:11 3.41 
4 *218:11 *218:13 244.434 
5 *218:13 *218:15 3.41 
6 *218:15 *218:17 239.499 
7 *218:17 gpio_analog_sel[7] 0.799783 
*END

*D_NET *219 0.651656
*CONN
*P gpio_analog_sel[8] O
*I *874:gpio_analog_sel[8] O *D counter_gpio_config_example
*CAP
1 gpio_analog_sel[8] 0.000154205
2 *874:gpio_analog_sel[8] 0.0062585
3 *219:13 0.178437
4 *219:11 0.178282
5 *219:9 0.0486238
6 *219:7 0.0548823
7 *219:7 *242:7 0.00106659
8 *219:7 *260:7 0
9 *219:7 *384:7 0.000107134
10 *219:9 *306:9 0.122305
11 *219:9 *393:9 0.0615402
12 *219:13 *395:13 0
*RES
1 *874:gpio_analog_sel[8] *219:7 17.7387 
2 *219:7 *219:9 1754.16 
3 *219:9 *219:11 3.41 
4 *219:11 *219:13 478.941 
5 *219:13 gpio_analog_sel[8] 0.517783 
*END

*D_NET *220 1.02051
*CONN
*P gpio_analog_sel[9] O
*I *874:gpio_analog_sel[9] O *D counter_gpio_config_example
*CAP
1 gpio_analog_sel[9] 2.56413e-05
2 *874:gpio_analog_sel[9] 0.0050648
3 *220:21 0.127342
4 *220:19 0.127316
5 *220:17 0.0300943
6 *220:15 0.0301377
7 *220:9 0.0113178
8 *220:7 0.0163392
9 *220:7 *359:7 0
10 *220:9 *383:9 0.0202559
11 *220:17 *272:9 0.173636
12 *220:17 *288:9 0.00212837
13 *220:17 *379:13 0.0121583
14 *220:17 *382:9 0
15 *220:17 *383:9 0.00107094
16 *220:17 *396:15 0.000397817
17 *220:17 *396:17 0.163163
18 *220:21 gpio_dm2[9] 0.00193339
19 *220:21 gpio_holdover[9] 0
20 *220:21 *352:21 0.285888
21 *101:7 *220:7 0.000724219
22 *150:9 *220:9 0.00237566
23 *164:7 *220:7 0.00012219
24 *201:9 *220:17 0.00901602
*RES
1 *874:gpio_analog_sel[9] *220:7 16.6938 
2 *220:7 *220:9 49.7981 
3 *220:9 *220:15 6.90303 
4 *220:15 *220:17 2138.48 
5 *220:17 *220:19 3.41 
6 *220:19 *220:21 477.86 
7 *220:21 gpio_analog_sel[9] 0.0791167 
*END

*D_NET *221 0.312899
*CONN
*P gpio_dm0[0] O
*I *874:gpio_dm0[0] O *D counter_gpio_config_example
*CAP
1 gpio_dm0[0] 0.000115479
2 *874:gpio_dm0[0] 0.00899318
3 *221:17 0.123186
4 *221:15 0.12307
5 *221:13 0.0179865
6 *221:11 0.0269797
7 *221:11 *385:7 4.95181e-05
8 *221:11 *385:9 0.00357932
9 *221:11 *551:7 0
10 *221:11 *551:9 0
11 *221:17 gpio_dm1[0] 0
12 gpio_analog_en[0] *221:17 0.00153291
13 gpio_analog_pol[0] *221:17 0.00202341
14 *170:17 *221:11 0.00538316
*RES
1 *874:gpio_dm0[0] *221:11 36.7314 
2 *221:11 *221:13 51.7157 
3 *221:13 *221:15 3.41 
4 *221:15 *221:17 337.798 
5 *221:17 gpio_dm0[0] 0.38775 
*END

*D_NET *222 0.573902
*CONN
*P gpio_dm0[10] O
*I *874:gpio_dm0[10] O *D counter_gpio_config_example
*CAP
1 gpio_dm0[10] 6.66346e-05
2 *874:gpio_dm0[10] 0.000142819
3 *222:17 0.0799315
4 *222:15 0.0798649
5 *222:13 0.142654
6 *222:11 0.142654
7 *222:9 0.0445741
8 *222:7 0.0447169
9 *222:7 *549:11 4.72078e-05
10 *222:9 *320:17 0.0105704
11 *222:9 *375:13 0.00185637
12 *222:9 *429:9 0
13 *222:9 *549:11 0.000136494
14 *222:9 *716:27 0.0171599
15 *222:17 *530:17 0
16 gpio_analog_en[10] *222:17 0.00052228
17 gpio_analog_pol[10] *222:17 0.0089516
18 *90:17 *222:17 0
19 *126:11 *222:7 5.35429e-05
20 *126:11 *222:9 0
21 *130:11 *222:9 0
*RES
1 *874:gpio_dm0[10] *222:7 0.556167 
2 *222:7 *222:9 157.008 
3 *222:9 *222:11 3.41 
4 *222:11 *222:13 416.912 
5 *222:13 *222:15 3.41 
6 *222:15 *222:17 213.555 
7 *222:17 gpio_dm0[10] 0.216983 
*END

*D_NET *223 1.05993
*CONN
*P gpio_dm0[11] O
*I *874:gpio_dm0[11] O *D counter_gpio_config_example
*CAP
1 gpio_dm0[11] 0.0028791
2 *874:gpio_dm0[11] 0.000471079
3 *223:13 0.119029
4 *223:11 0.116149
5 *223:9 0.0410463
6 *223:7 0.0415174
7 *223:7 *296:7 3.63841e-05
8 *223:7 *426:7 0.000111872
9 *223:9 *224:9 0.188257
10 *223:9 *225:9 0.217357
11 *223:9 *264:9 0.000809397
12 *223:9 *384:9 0.0413397
13 *223:9 *434:9 0
14 gpio_analog_en[11] gpio_dm0[11] 0.00058726
15 *91:21 gpio_dm0[11] 0.000395189
16 *91:21 *223:13 0.289837
17 *122:131 *223:9 0.000111082
18 *135:15 gpio_dm0[11] 0
19 *135:15 *223:13 0
*RES
1 *874:gpio_dm0[11] *223:7 4.76673 
2 *223:7 *223:9 2850.05 
3 *223:9 *223:11 3.41 
4 *223:11 *223:13 459.58 
5 *223:13 gpio_dm0[11] 7.21998 
*END

*D_NET *224 0.791975
*CONN
*P gpio_dm0[12] O
*I *874:gpio_dm0[12] O *D counter_gpio_config_example
*CAP
1 gpio_dm0[12] 0.000120611
2 *874:gpio_dm0[12] 0.000513167
3 *224:13 0.169471
4 *224:11 0.16935
5 *224:9 0.0441557
6 *224:7 0.0446688
7 *224:9 *225:9 0.00913659
8 *224:9 *264:9 0.15566
9 *224:13 *532:23 0
10 gpio_analog_en[12] *224:13 0.0011767
11 gpio_analog_pol[12] *224:13 0.00911386
12 *122:131 *224:9 0.000102658
13 *123:7 *224:7 0.000139827
14 *197:7 *224:7 0.000109002
15 *223:9 *224:9 0.188257
*RES
1 *874:gpio_dm0[12] *224:7 4.8388 
2 *224:7 *224:9 2521.59 
3 *224:9 *224:11 3.41 
4 *224:11 *224:13 466.041 
5 *224:13 gpio_dm0[12] 0.404983 
*END

*D_NET *225 0.928671
*CONN
*P gpio_dm0[13] O
*I *874:gpio_dm0[13] O *D counter_gpio_config_example
*CAP
1 gpio_dm0[13] 2.1696e-05
2 *874:gpio_dm0[13] 0.000378786
3 *225:13 0.126607
4 *225:11 0.126585
5 *225:9 0.109532
6 *225:7 0.109911
7 *225:9 *302:9 0
8 *225:9 *324:17 0
9 *225:9 *434:9 0
10 *225:9 *532:19 0
11 *225:13 *533:25 0.227901
12 gpio_analog_en[13] *225:13 0
13 gpio_analog_pol[13] *225:13 0.000964782
14 *93:21 *225:13 0
15 *119:7 *225:7 0.000138123
16 *147:19 *225:9 0
17 *212:7 *225:7 0.000138123
18 *223:9 *225:9 0.217357
19 *224:9 *225:9 0.00913659
*RES
1 *874:gpio_dm0[13] *225:7 4.69467 
2 *225:7 *225:9 3282.95 
3 *225:9 *225:11 3.41 
4 *225:11 *225:13 465.897 
5 *225:13 gpio_dm0[13] 0.07285 
*END

*D_NET *226 0.867333
*CONN
*P gpio_dm0[14] O
*I *874:gpio_dm0[14] O *D counter_gpio_config_example
*CAP
1 gpio_dm0[14] 0.0114115
2 *874:gpio_dm0[14] 0.000117301
3 *226:13 0.20449
4 *226:11 0.193079
5 *226:9 0.0785505
6 *226:7 0.0786678
7 gpio_dm0[14] *534:34 0
8 *226:7 *320:7 3.17015e-05
9 *226:9 *320:7 1.83572e-05
10 *226:9 *320:9 0.00698951
11 *226:9 *562:17 0.208679
12 *226:13 *711:21 0
13 *226:13 *799:13 0.0737988
14 gpio_analog_en[14] gpio_dm0[14] 5.28504e-05
15 gpio_analog_pol[14] gpio_dm0[14] 0
16 *94:11 *226:7 3.41792e-05
17 *94:11 *226:9 0.000236843
18 *94:17 gpio_dm0[14] 0.0111752
19 *218:9 *226:9 0
*RES
1 *874:gpio_dm0[14] *226:7 0.412033 
2 *226:7 *226:9 333.427 
3 *226:9 *226:11 3.41 
4 *226:11 *226:13 559.027 
5 *226:13 gpio_dm0[14] 41.4839 
*END

*D_NET *227 0.579266
*CONN
*P gpio_dm0[15] O
*I *874:gpio_dm0[15] O *D counter_gpio_config_example
*CAP
1 gpio_dm0[15] 8.37064e-05
2 *874:gpio_dm0[15] 0.0167157
3 *227:21 0.00665887
4 *227:19 0.00657516
5 *227:17 0.107616
6 *227:15 0.107616
7 *227:13 0.157428
8 *227:11 0.174144
9 *227:11 *254:17 0.00101899
10 *227:11 *544:11 0
11 *227:17 *402:13 0
12 gpio_analog_en[15] gpio_dm0[15] 0
13 gpio_analog_pol[15] gpio_dm0[15] 0
14 *117:13 *227:11 0.000298966
15 *122:195 *227:11 0
16 *124:11 *227:11 0.0011095
17 *139:17 *227:21 0
*RES
1 *874:gpio_dm0[15] *227:11 47.5262 
2 *227:11 *227:13 3233.77 
3 *227:13 *227:15 3.41 
4 *227:15 *227:17 295.664 
5 *227:17 *227:19 3.41 
6 *227:19 *227:21 136.732 
7 *227:21 gpio_dm0[15] 1.60714 
*END

*D_NET *228 0.728941
*CONN
*P gpio_dm0[16] O
*I *874:gpio_dm0[16] O *D counter_gpio_config_example
*CAP
1 gpio_dm0[16] 0.154932
2 *874:gpio_dm0[16] 0.000573706
3 *228:15 0.154932
4 *228:13 0.129251
5 *228:11 0.129251
6 *228:9 0.0154232
7 *228:7 0.0159969
8 *228:7 *280:7 0.000127704
9 *228:7 *406:7 0
10 *228:9 *229:9 0.0536375
11 *228:9 *264:9 0.0492859
12 *228:9 *384:9 0.00742587
13 *228:13 *480:15 0
14 *228:13 *678:11 0
15 *228:13 *680:11 0
16 *228:13 *684:11 0.0144542
17 *228:13 *791:11 0
18 *228:13 *812:11 0.00218585
19 gpio_analog_en[16] gpio_dm0[16] 0
20 gpio_analog_pol[16] gpio_dm0[16] 0
21 *212:9 *228:9 0.00146354
*RES
1 *874:gpio_dm0[16] *228:7 4.98293 
2 *228:7 *228:9 793.054 
3 *228:9 *228:11 3.41 
4 *228:11 *228:13 355.192 
5 *228:13 *228:15 3.41 
6 *228:15 gpio_dm0[16] 3070.38 
*END

*D_NET *229 0.673567
*CONN
*P gpio_dm0[17] O
*I *874:gpio_dm0[17] O *D counter_gpio_config_example
*CAP
1 gpio_dm0[17] 0.149777
2 *874:gpio_dm0[17] 0.000569034
3 *229:15 0.149777
4 *229:13 0.121252
5 *229:11 0.121252
6 *229:9 0.0141515
7 *229:7 0.0147205
8 gpio_dm0[17] *449:15 0
9 *229:7 *374:7 0.000159028
10 *229:7 *537:7 0.000160632
11 *229:9 *271:9 0.000643206
12 *229:9 *360:9 0.0383438
13 *229:9 *663:9 0
14 *229:13 *407:13 0
15 *229:13 *480:15 0
16 *229:13 *678:11 0
17 *229:13 *680:11 0
18 *229:13 *722:11 0
19 *229:13 *732:11 0.00912301
20 gpio_analog_en[17] gpio_dm0[17] 0
21 gpio_analog_pol[17] gpio_dm0[17] 0
22 *228:9 *229:9 0.0536375
*RES
1 *874:gpio_dm0[17] *229:7 5.055 
2 *229:7 *229:9 671.625 
3 *229:9 *229:11 3.41 
4 *229:11 *229:13 314.978 
5 *229:13 *229:15 3.41 
6 *229:15 gpio_dm0[17] 3082.53 
*END

*D_NET *230 0.491369
*CONN
*P gpio_dm0[18] O
*I *874:gpio_dm0[18] O *D counter_gpio_config_example
*CAP
1 gpio_dm0[18] 0.161554
2 *874:gpio_dm0[18] 0.000180026
3 *230:11 0.161554
4 *230:9 0.0376919
5 *230:7 0.037872
6 *230:7 *235:11 4.43983e-05
7 *230:9 *235:11 3.80812e-05
8 *230:9 *240:11 0
9 *230:9 *694:17 0.0923887
10 *230:9 *826:22 0
11 gpio_analog_en[18] gpio_dm0[18] 0
12 gpio_analog_pol[18] gpio_dm0[18] 0
13 *188:7 *230:7 4.54925e-05
14 *188:9 *230:9 0
*RES
1 *874:gpio_dm0[18] *230:7 0.347658 
2 *230:7 *230:9 149.549 
3 *230:9 *230:11 3.41 
4 *230:11 gpio_dm0[18] 3320.53 
*END

*D_NET *231 0.3981
*CONN
*P gpio_dm0[19] O
*I *874:gpio_dm0[19] O *D counter_gpio_config_example
*CAP
1 gpio_dm0[19] 0.17134
2 *874:gpio_dm0[19] 0.000180055
3 *231:11 0.17134
4 *231:9 0.024445
5 *231:7 0.0246251
6 *231:7 *386:7 0
7 *231:9 *386:9 0
8 gpio_analog_en[19] gpio_dm0[19] 0
9 gpio_analog_pol[19] gpio_dm0[19] 0
10 *175:7 *231:7 3.6865e-05
11 *175:9 *231:7 5.04678e-06
12 *175:9 *231:9 0.00612756
*RES
1 *874:gpio_dm0[19] *231:7 0.556167 
2 *231:7 *231:9 69.7715 
3 *231:9 *231:11 3.41 
4 *231:11 gpio_dm0[19] 3517.24 
*END

*D_NET *232 0.382088
*CONN
*P gpio_dm0[1] O
*I *874:gpio_dm0[1] O *D counter_gpio_config_example
*CAP
1 gpio_dm0[1] 0.00162247
2 *874:gpio_dm0[1] 0.0477006
3 *232:18 0.142219
4 *232:16 0.188297
5 gpio_dm0[1] gpio_dm1[1] 0.00034597
6 gpio_dm0[1] *833:13 0
7 *232:16 *298:16 0.000723379
8 *232:16 *664:16 0.000140775
9 *232:18 gpio_dm1[1] 1.43076e-05
10 gpio_analog_en[1] gpio_dm0[1] 0.000945659
11 gpio_analog_en[1] *232:18 0
12 gpio_analog_pol[1] gpio_dm0[1] 0
13 *120:10 *232:16 7.78926e-05
14 *155:25 gpio_dm0[1] 0
*RES
1 *874:gpio_dm0[1] *232:16 21.2472 
2 *232:16 *232:18 367.407 
3 *232:18 gpio_dm0[1] 17.7236 
*END

*D_NET *233 0.531197
*CONN
*P gpio_dm0[20] O
*I *874:gpio_dm0[20] O *D counter_gpio_config_example
*CAP
1 gpio_dm0[20] 8.42969e-05
2 *874:gpio_dm0[20] 0.000727327
3 *233:25 0.158315
4 *233:23 0.15823
5 *233:21 0.0126069
6 *233:19 0.0176431
7 *233:9 0.0158129
8 *233:7 0.011504
9 *233:9 *271:9 0.0259229
10 *233:9 *663:9 0
11 *233:19 *271:19 0.000750254
12 *233:19 *323:15 3.79901e-06
13 *233:19 *542:17 0.0194017
14 *233:19 *544:17 0.00931052
15 *233:19 *770:5 9.81333e-05
16 *233:19 *783:11 0.000201384
17 *233:21 *271:21 0.056896
18 *233:21 *323:15 0.000684018
19 *233:21 *542:21 0.0306831
20 *233:21 *743:17 0.00955293
21 gpio_analog_en[20] gpio_dm0[20] 0
22 gpio_analog_en[20] *233:25 0
23 gpio_analog_pol[20] gpio_dm0[20] 0
24 gpio_analog_pol[20] *233:25 0
25 *103:27 *233:21 0.000186825
26 *104:27 *233:19 0.00214594
27 *152:7 *233:7 0.000162979
28 *189:7 *233:7 0.000162979
29 *215:33 *233:19 0.000110532
*RES
1 *874:gpio_dm0[20] *233:7 5.2712 
2 *233:7 *233:9 323.732 
3 *233:9 *233:19 46.4347 
4 *233:19 *233:21 538.571 
5 *233:21 *233:23 4.5 
6 *233:23 *233:25 3133.74 
7 *233:25 gpio_dm0[20] 1.60714 
*END

*D_NET *234 0.417228
*CONN
*P gpio_dm0[21] O
*I *874:gpio_dm0[21] O *D counter_gpio_config_example
*CAP
1 gpio_dm0[21] 8.83825e-05
2 *874:gpio_dm0[21] 0.00240363
3 *234:21 0.15321
4 *234:19 0.153121
5 *234:17 0.000872139
6 *234:15 0.000872139
7 *234:13 0.00868403
8 *234:11 0.0110877
9 *234:11 *358:7 3.79145e-05
10 *234:11 *546:11 3.72636e-05
11 *234:11 *815:17 0
12 *234:13 *543:13 0.0376022
13 *234:13 *815:17 0.000289082
14 *234:17 *391:21 0.00665989
15 gpio_analog_en[21] gpio_dm0[21] 0
16 gpio_analog_pol[21] gpio_dm0[21] 0
17 *117:17 *234:17 0.00137587
18 *146:29 *234:21 0
19 *158:11 *234:13 0.0338952
20 *195:9 *234:13 0.000333729
21 *215:35 *234:17 0.00665797
*RES
1 *874:gpio_dm0[21] *234:11 46.8715 
2 *234:11 *234:13 478.312 
3 *234:13 *234:15 4.5 
4 *234:15 *234:17 62.9643 
5 *234:17 *234:19 4.5 
6 *234:19 *234:21 3141.94 
7 *234:21 gpio_dm0[21] 1.60714 
*END

*D_NET *235 0.431085
*CONN
*P gpio_dm0[22] O
*I *874:gpio_dm0[22] O *D counter_gpio_config_example
*CAP
1 gpio_dm0[22] 0.15461
2 *874:gpio_dm0[22] 0.000351419
3 *235:19 0.15461
4 *235:17 0.00758001
5 *235:15 0.00758001
6 *235:13 0.00445459
7 *235:11 0.004806
8 gpio_dm0[22] *675:5 0
9 gpio_dm0[22] *678:5 0.00484244
10 gpio_dm0[22] *753:13 0.00383475
11 *235:11 *240:11 6.6967e-05
12 *235:13 *425:13 0.0140246
13 *235:13 *427:13 0.00874058
14 *235:13 *543:13 0.000439471
15 *235:13 *546:13 0
16 *235:17 *367:25 0.0321768
17 *235:17 *743:17 0.0303144
18 gpio_analog_en[22] gpio_dm0[22] 0
19 gpio_analog_pol[22] gpio_dm0[22] 0
20 *103:27 *235:17 0.000482634
21 *104:27 *235:17 0.00208748
22 *142:13 *235:17 0
23 *230:7 *235:11 4.43983e-05
24 *230:9 *235:11 3.80812e-05
*RES
1 *874:gpio_dm0[22] *235:11 4.33747 
2 *235:11 *235:13 186.518 
3 *235:13 *235:15 3.41 
4 *235:15 *235:17 51.5747 
5 *235:17 *235:19 3.41 
6 *235:19 gpio_dm0[22] 3136.56 
*END

*D_NET *236 0.636304
*CONN
*P gpio_dm0[23] O
*I *874:gpio_dm0[23] O *D counter_gpio_config_example
*CAP
1 gpio_dm0[23] 2.31538e-05
2 *874:gpio_dm0[23] 6.08966e-05
3 *236:17 0.00363144
4 *236:15 0.00360828
5 *236:13 0.0336335
6 *236:11 0.0336335
7 *236:9 0.121918
8 *236:7 0.121979
9 *236:7 *530:7 3.38962e-05
10 *236:9 *237:9 0.0514825
11 *236:9 *245:9 0.00218149
12 *236:9 *286:21 0.0557201
13 *236:13 *451:9 0
14 gpio_analog_en[23] *236:17 0
15 gpio_analog_pol[23] *236:17 0
16 *138:7 *236:7 3.38962e-05
17 *158:11 *236:9 0.000683358
18 *192:9 *236:9 0.207681
*RES
1 *874:gpio_dm0[23] *236:7 3.68573 
2 *236:7 *236:9 3429.57 
3 *236:9 *236:11 3.41 
4 *236:11 *236:13 91.4275 
5 *236:13 *236:15 3.41 
6 *236:15 *236:17 69.9464 
7 *236:17 gpio_dm0[23] 0.473214 
*END

*D_NET *237 0.850061
*CONN
*P gpio_dm0[24] O
*I *874:gpio_dm0[24] O *D counter_gpio_config_example
*CAP
1 gpio_dm0[24] 0.00237924
2 *874:gpio_dm0[24] 9.62334e-05
3 *237:13 0.0320903
4 *237:11 0.0297111
5 *237:9 0.143587
6 *237:7 0.143683
7 *237:7 *355:7 2.38223e-05
8 *237:7 *355:9 8.12865e-06
9 *237:7 *409:11 3.28247e-05
10 *237:9 *245:9 0.0200879
11 *237:9 *251:26 2.90941e-05
12 *237:9 *286:21 0.121527
13 *237:9 *368:57 0
14 *237:9 *372:25 0.00321452
15 *237:9 *420:12 0
16 *237:9 *545:12 0
17 *237:9 *545:16 0
18 *237:9 *553:16 0.000141828
19 gpio_analog_en[24] gpio_dm0[24] 0.00045732
20 gpio_analog_en[24] *237:13 0
21 *110:6 *237:9 0.000460455
22 *120:8 *237:9 0.0007093
23 *149:25 gpio_dm0[24] 0.000453566
24 *149:25 *237:13 0.075638
25 *192:9 *237:9 0.0359269
26 *195:9 *237:9 0.176287
27 *200:13 *237:9 0.0120332
28 *208:30 *237:9 0
29 *236:9 *237:9 0.0514825
*RES
1 *874:gpio_dm0[24] *237:7 3.67049 
2 *237:7 *237:9 601.801 
3 *237:9 *237:11 3.41 
4 *237:11 *237:13 120.11 
5 *237:13 gpio_dm0[24] 6.23142 
*END

*D_NET *238 0.562487
*CONN
*P gpio_dm0[25] O
*I *874:gpio_dm0[25] O *D counter_gpio_config_example
*CAP
1 gpio_dm0[25] 0.00134158
2 *874:gpio_dm0[25] 0.00199043
3 *238:33 0.0448168
4 *238:31 0.0434752
5 *238:29 0.0580058
6 *238:27 0.0581647
7 *238:17 0.00132517
8 *238:15 0.00116634
9 *238:13 0.00503199
10 *238:11 0.00702242
11 *238:11 *269:7 2.75538e-05
12 *238:11 *269:9 0.000336575
13 *238:11 *364:7 3.84969e-05
14 *238:11 *364:9 0.000331955
15 *238:13 *240:13 0.013944
16 *238:13 *330:13 6.86198e-05
17 *238:13 *372:13 0.0200715
18 *238:13 *738:21 0.00164795
19 *238:17 *259:29 0.000374517
20 *238:17 *282:17 0.00586403
21 *238:17 *661:17 0.00613035
22 *238:17 *694:9 0.000533861
23 *238:17 *716:19 0.000221544
24 *238:27 *749:19 5.11566e-05
25 *238:29 *454:13 0.0959564
26 *238:29 *455:13 0.184088
27 gpio_analog_pol[25] gpio_dm0[25] 0.000492821
28 gpio_analog_pol[25] *238:33 0.00991981
29 *106:25 gpio_dm0[25] 0
30 *106:25 *238:33 0
31 *146:27 *238:27 4.73891e-05
*RES
1 *874:gpio_dm0[25] *238:11 8.44527 
2 *238:11 *238:13 254.062 
3 *238:13 *238:15 4.5 
4 *238:15 *238:17 62.9643 
5 *238:17 *238:27 13.1977 
6 *238:27 *238:29 394.007 
7 *238:29 *238:31 3.41 
8 *238:31 *238:33 116.327 
9 *238:33 gpio_dm0[25] 12.4795 
*END

*D_NET *239 0.555373
*CONN
*P gpio_dm0[26] O
*I *874:gpio_dm0[26] O *D counter_gpio_config_example
*CAP
1 gpio_dm0[26] 0.00242426
2 *874:gpio_dm0[26] 0.00310752
3 *239:25 0.0514292
4 *239:23 0.049005
5 *239:21 0.0709536
6 *239:19 0.0709811
7 *239:13 0.0040841
8 *239:11 0.00716417
9 *239:11 *372:11 0.000451506
10 *239:11 *425:11 6.77075e-05
11 *239:13 *281:13 0.0100966
12 *239:13 *357:17 0.00112481
13 *239:13 *376:13 0.000285653
14 *239:13 *749:25 0
15 *239:19 *243:11 7.76075e-06
16 *239:19 *540:11 5.0145e-05
17 *239:21 *281:13 0.0050204
18 *239:21 *281:21 0.153465
19 *239:21 *286:13 0.00163783
20 *239:21 *376:13 0.118857
21 *239:21 *423:13 0
22 gpio_analog_en[26] gpio_dm0[26] 0.000446059
23 gpio_analog_en[26] *239:25 0.00443554
24 gpio_analog_pol[26] gpio_dm0[26] 0.000277084
25 gpio_analog_pol[26] *239:25 0
26 *140:9 *239:11 0
*RES
1 *874:gpio_dm0[26] *239:11 11.3148 
2 *239:11 *239:13 125.196 
3 *239:13 *239:19 6.90303 
4 *239:19 *239:21 394.007 
5 *239:21 *239:23 3.41 
6 *239:23 *239:25 127.749 
7 *239:25 gpio_dm0[26] 5.99955 
*END

*D_NET *240 0.494102
*CONN
*P gpio_dm0[27] O
*I *874:gpio_dm0[27] O *D counter_gpio_config_example
*CAP
1 gpio_dm0[27] 0.0307379
2 *874:gpio_dm0[27] 0.00214174
3 *240:28 6.99871e-06
4 *240:23 0.0307309
5 *240:21 0.0530183
6 *240:19 0.0556764
7 *240:13 0.00881334
8 *240:11 0.00829702
9 gpio_dm0[27] gpio_dm1[27] 0
10 *240:11 *398:11 0.000423004
11 *240:13 *330:13 3.30532e-05
12 *240:19 *282:27 5.11566e-05
13 *240:19 *286:19 0.00286575
14 *240:19 *425:17 0.00198607
15 *240:19 *557:17 0.00011489
16 *240:19 *705:35 0.000302529
17 *240:19 *749:19 0.00315042
18 *240:19 *787:9 0.000283042
19 *240:21 *453:17 0.0534909
20 *240:21 *454:13 0.152791
21 gpio_analog_en[27] gpio_dm0[27] 0.00164116
22 gpio_analog_pol[27] gpio_dm0[27] 0
23 gpio_analog_pol[27] *240:28 0
24 *108:25 gpio_dm0[27] 0.0732137
25 *117:17 *240:19 0
26 *146:27 *240:19 0.000321518
27 *149:13 *240:13 0
28 *230:9 *240:11 0
29 *235:11 *240:11 6.6967e-05
30 *238:13 *240:13 0.013944
*RES
1 *874:gpio_dm0[27] *240:11 8.51733 
2 *240:11 *240:13 176.804 
3 *240:13 *240:19 17.5689 
4 *240:19 *240:21 327.104 
5 *240:21 *240:23 3.41 
6 *240:23 gpio_dm0[27] 119.438 
7 gpio_dm0[27] *240:28 0.0762162 
*END

*D_NET *241 0.457365
*CONN
*P gpio_dm0[28] O
*I *874:gpio_dm0[28] O *D counter_gpio_config_example
*CAP
1 gpio_dm0[28] 0.00706272
2 *874:gpio_dm0[28] 0.00400513
3 *241:19 0.0315932
4 *241:17 0.024944
5 *241:9 0.055589
6 *241:7 0.0591807
7 gpio_dm0[28] *413:17 0.000298464
8 *241:7 *296:7 3.63841e-05
9 *241:7 *666:15 0.000390825
10 *241:9 *305:9 0.0680337
11 *241:17 gpio_dm2[31] 4.54975e-05
12 *241:17 gpio_holdover[31] 4.95924e-05
13 *241:19 *268:17 0.0114212
14 *241:19 *374:9 0.0311691
15 *241:19 *418:9 0.00333311
16 *241:19 *440:9 0.0054875
17 gpio_analog_pol[28] gpio_dm0[28] 0.00066329
18 *107:9 *241:19 0.00922469
19 *109:17 gpio_dm0[28] 0.00107648
20 *153:17 gpio_dm0[28] 0.00522085
21 *178:17 *241:19 0.0097902
22 *179:17 *241:9 0.123259
23 *184:9 *241:9 0.00549053
*RES
1 *874:gpio_dm0[28] *241:7 13.4868 
2 *241:7 *241:9 1946.62 
3 *241:9 *241:17 7.95897 
4 *241:17 *241:19 104.45 
5 *241:19 gpio_dm0[28] 24.7347 
*END

*D_NET *242 0.292221
*CONN
*P gpio_dm0[29] O
*I *874:gpio_dm0[29] O *D counter_gpio_config_example
*CAP
1 gpio_dm0[29] 0.00448961
2 *874:gpio_dm0[29] 0.00753366
3 *242:9 0.0880127
4 *242:7 0.0910568
5 gpio_dm0[29] *286:25 0
6 *242:7 *266:15 5.71937e-05
7 *242:7 *307:15 7.16585e-05
8 *242:9 *248:9 0
9 *242:9 *289:9 0
10 *242:9 *291:9 0.0571968
11 *242:9 *373:17 0.0329627
12 gpio_analog_pol[29] gpio_dm0[29] 0.00888948
13 *110:10 gpio_dm0[29] 0
14 *132:7 *242:7 2.54911e-05
15 *161:9 *242:9 0
16 *206:11 *242:9 0.00085829
17 *219:7 *242:7 0.00106659
*RES
1 *874:gpio_dm0[29] *242:7 20.4412 
2 *242:7 *242:9 322.523 
3 *242:9 gpio_dm0[29] 18.3427 
*END

*D_NET *243 0.321583
*CONN
*P gpio_dm0[2] O
*I *874:gpio_dm0[2] O *D counter_gpio_config_example
*CAP
1 gpio_dm0[2] 0.00143162
2 *874:gpio_dm0[2] 0.00325988
3 *243:17 0.137478
4 *243:15 0.147933
5 *243:11 0.0151464
6 gpio_dm0[2] *342:25 0
7 gpio_dm0[2] *833:13 0
8 *243:11 *253:11 0.000645626
9 *243:11 *540:11 0.000639561
10 *243:15 *357:17 4.84766e-05
11 *243:15 *376:13 0.00629421
12 *243:15 *419:15 0.0020336
13 *243:15 *749:25 0.000729326
14 *243:17 gpio_inp_dis[2] 0.000396695
15 *243:17 *255:9 0
16 *243:17 *273:9 0
17 gpio_analog_en[2] gpio_dm0[2] 0
18 gpio_analog_pol[2] gpio_dm0[2] 0.00194238
19 *128:17 *243:15 0.00332364
20 *155:25 gpio_dm0[2] 0
21 *214:13 *243:15 0.000271935
22 *239:19 *243:11 7.76075e-06
*RES
1 *874:gpio_dm0[2] *243:11 11.9405 
2 *243:11 *243:15 42.3417 
3 *243:15 *243:17 359.407 
4 *243:17 gpio_dm0[2] 14.7866 
*END

*D_NET *244 0.42999
*CONN
*P gpio_dm0[30] O
*I *874:gpio_dm0[30] O *D counter_gpio_config_example
*CAP
1 gpio_dm0[30] 0.00842575
2 *874:gpio_dm0[30] 0.00194302
3 *244:9 0.0984867
4 *244:7 0.092004
5 gpio_dm0[30] gpio_dm1[30] 0
6 *244:9 *316:11 0.0266
7 *244:9 *369:9 0.025937
8 *244:9 *392:13 0
9 *244:9 *426:9 0.0121227
10 *244:9 *733:13 0.001337
11 *244:9 *778:13 0.00319495
12 gpio_analog_en[30] gpio_dm0[30] 0.000498978
13 gpio_analog_pol[30] gpio_dm0[30] 0
14 *91:9 *244:9 0.00126975
15 *93:9 *244:9 0.0116934
16 *93:17 *244:9 0.0110946
17 *96:7 *244:7 0.000395675
18 *105:9 *244:9 0.000577097
19 *105:17 *244:9 0.0330686
20 *112:33 gpio_dm0[30] 0.0144225
21 *116:9 *244:9 0.0277205
22 *122:15 *244:9 0.00483202
23 *122:17 *244:9 0.00106662
24 *127:9 *244:9 0.00825909
25 *180:9 *244:9 0.0140713
26 *183:7 *244:7 0.000397194
27 *194:9 *244:9 0.0305712
*RES
1 *874:gpio_dm0[30] *244:7 8.47817 
2 *244:7 *244:9 352.353 
3 *244:9 gpio_dm0[30] 30.0238 
*END

*D_NET *245 0.360519
*CONN
*P gpio_dm0[31] O
*I *874:gpio_dm0[31] O *D counter_gpio_config_example
*CAP
1 gpio_dm0[31] 0.000468088
2 *874:gpio_dm0[31] 0.000138878
3 *245:13 0.0495947
4 *245:11 0.0491266
5 *245:9 0.0303479
6 *245:7 0.0304868
7 gpio_dm0[31] *726:21 0.00075497
8 *245:7 *299:7 3.48999e-05
9 *245:7 *299:9 1.40147e-06
10 *245:13 *810:17 0
11 gpio_analog_pol[31] gpio_dm0[31] 0
12 gpio_analog_pol[31] *245:13 0
13 *113:17 gpio_dm0[31] 0.000161917
14 *140:7 *245:7 3.40663e-05
15 *158:11 *245:9 0.0675079
16 *192:9 *245:9 0.109592
17 *236:9 *245:9 0.00218149
18 *237:9 *245:9 0.0200879
*RES
1 *874:gpio_dm0[31] *245:7 3.8179 
2 *245:7 *245:9 1409 
3 *245:9 *245:11 3.41 
4 *245:11 *245:13 125.227 
5 *245:13 gpio_dm0[31] 16.7298 
*END

*D_NET *246 0.326232
*CONN
*P gpio_dm0[32] O
*I *874:gpio_dm0[32] O *D counter_gpio_config_example
*CAP
1 gpio_dm0[32] 0.00251263
2 *874:gpio_dm0[32] 0.0140061
3 *246:53 0.0371328
4 *246:51 0.0357747
5 *246:37 0.0175268
6 *246:35 0.0209479
7 *246:27 0.0185818
8 gpio_dm0[32] gpio_inp_dis[32] 0
9 *246:27 *282:13 0.000248519
10 *246:27 *415:13 0.000699323
11 *246:27 *533:13 0.000918736
12 *246:35 *282:13 0.000942137
13 *246:35 *415:13 0.00886938
14 *246:37 *282:13 0.000185417
15 *246:37 *330:21 0.0086839
16 *246:37 *415:13 0.0437494
17 *246:51 *330:21 0.000111282
18 *246:51 *415:13 4.12344e-05
19 *246:53 gpio_inp_dis[32] 0
20 gpio_analog_en[32] gpio_dm0[32] 0.000431944
21 gpio_analog_en[32] *246:53 0
22 gpio_analog_pol[32] gpio_dm0[32] 0.000164647
23 *114:29 *246:51 0.00014264
24 *114:29 *246:53 0.0712589
25 *121:11 *246:27 0.000544134
26 *149:13 *246:27 0.00107493
27 *149:13 *246:35 0.000154703
28 *149:13 *246:37 0.0139324
29 *153:11 *246:27 0.000549015
30 *158:15 *246:53 0
31 *203:13 *246:27 0.00594036
32 *203:13 *246:35 0.00717964
33 *203:13 *246:37 0.0138239
34 *205:13 *246:27 0.00010283
*RES
1 *874:gpio_dm0[32] *246:27 44.3987 
2 *246:27 *246:35 23.1773 
3 *246:35 *246:37 93.953 
4 *246:37 *246:51 6.28013 
5 *246:51 *246:53 123.281 
6 *246:53 gpio_dm0[32] 5.94942 
*END

*D_NET *247 0.218812
*CONN
*P gpio_dm0[33] O
*I *874:gpio_dm0[33] O *D counter_gpio_config_example
*CAP
1 gpio_dm0[33] 0.00611739
2 *874:gpio_dm0[33] 0.00555759
3 *247:9 0.0334842
4 *247:7 0.0329244
5 gpio_dm0[33] gpio_dm1[33] 0
6 gpio_dm0[33] *373:15 0
7 gpio_dm0[33] *775:9 0.000180251
8 *247:7 *322:7 0
9 *247:7 *542:7 0.000241773
10 *247:9 *284:9 0
11 *247:9 *314:9 0.0174318
12 gpio_analog_en[33] gpio_dm0[33] 0.0109067
13 gpio_analog_pol[33] gpio_dm0[33] 0
14 *183:9 *247:9 0.00390792
15 *191:9 *247:9 0.0154275
16 *193:17 *247:9 0.0248339
17 *196:9 *247:9 0.067799
18 *206:7 *247:7 0
*RES
1 *874:gpio_dm0[33] *247:7 15.6848 
2 *247:7 *247:9 145.358 
3 *247:9 gpio_dm0[33] 22.7607 
*END

*D_NET *248 0.18988
*CONN
*P gpio_dm0[34] O
*I *874:gpio_dm0[34] O *D counter_gpio_config_example
*CAP
1 gpio_dm0[34] 0.00537819
2 *874:gpio_dm0[34] 0.00644787
3 *248:9 0.02849
4 *248:7 0.0295597
5 gpio_dm0[34] *413:17 0.000298464
6 *248:7 *365:7 0.00173285
7 *248:9 *280:9 0.00221188
8 *248:9 *289:9 0.0432708
9 *248:9 *307:9 0
10 *248:9 *366:9 0.00340411
11 gpio_analog_en[34] gpio_dm0[34] 0.00104278
12 gpio_analog_pol[34] gpio_dm0[34] 0.000649823
13 *159:9 *248:9 0
14 *160:21 gpio_dm0[34] 0.00102983
15 *161:9 *248:9 0.0479716
16 *163:9 *248:9 0.017422
17 *191:7 *248:7 0.000969735
18 *242:9 *248:9 0
*RES
1 *874:gpio_dm0[34] *248:7 21.306 
2 *248:7 *248:9 139.073 
3 *248:9 gpio_dm0[34] 17.9103 
*END

*D_NET *249 0.15985
*CONN
*P gpio_dm0[35] O
*I *874:gpio_dm0[35] O *D counter_gpio_config_example
*CAP
1 gpio_dm0[35] 0.00962853
2 *874:gpio_dm0[35] 0.00306491
3 *249:9 0.0298444
4 *249:7 0.0232807
5 gpio_dm0[35] *413:15 3.31396e-05
6 gpio_dm0[35] *462:15 0.000103722
7 *249:7 *537:7 0.000302876
8 *249:9 *274:9 0.00681912
9 *249:9 *325:9 0.0115904
10 *249:9 *470:11 0.00252748
11 gpio_analog_en[35] gpio_dm0[35] 0
12 gpio_analog_pol[35] gpio_dm0[35] 0.00835623
13 *95:9 *249:9 0.00881042
14 *96:9 *249:9 0.00245665
15 *174:9 *249:9 0.0304683
16 *197:9 *249:9 0.0225627
17 *204:9 *249:9 0
*RES
1 *874:gpio_dm0[35] *249:7 10.3519 
2 *249:7 *249:9 96.8858 
3 *249:9 gpio_dm0[35] 36.5882 
*END

*D_NET *250 0.158662
*CONN
*P gpio_dm0[36] O
*I *874:gpio_dm0[36] O *D counter_gpio_config_example
*CAP
1 gpio_dm0[36] 0.0697624
2 *874:gpio_dm0[36] 0.0697624
3 gpio_dm0[36] gpio_dm1[36] 0.0183246
4 gpio_dm0[36] *416:23 4.71923e-05
5 gpio_dm0[36] *424:35 2.82126e-05
6 gpio_dm0[36] *545:12 0.000496648
7 gpio_analog_en[36] gpio_dm0[36] 0.000240946
8 gpio_analog_pol[36] gpio_dm0[36] 0
*RES
1 *874:gpio_dm0[36] gpio_dm0[36] 41.6796 
*END

*D_NET *251 0.144119
*CONN
*P gpio_dm0[37] O
*I *874:gpio_dm0[37] O *D counter_gpio_config_example
*CAP
1 gpio_dm0[37] 0.00117254
2 *874:gpio_dm0[37] 0.0682636
3 *251:26 0.0694361
4 gpio_dm0[37] *427:21 0
5 gpio_dm0[37] *726:21 0.00229199
6 *251:26 *276:11 0.00238855
7 *251:26 *703:139 0.000225372
8 gpio_analog_en[37] gpio_dm0[37] 0.00015431
9 gpio_analog_pol[37] gpio_dm0[37] 0
10 *208:30 *251:26 0.000157117
11 *237:9 *251:26 2.90941e-05
*RES
1 *874:gpio_dm0[37] *251:26 36.3518 
2 *251:26 gpio_dm0[37] 32.6347 
*END

*D_NET *252 0.104378
*CONN
*P gpio_dm0[38] O
*I *874:gpio_dm0[38] O *D counter_gpio_config_example
*CAP
1 gpio_dm0[38] 0.00176344
2 *874:gpio_dm0[38] 0.00695577
3 *252:50 0.00657898
4 *252:48 0.00625063
5 *252:42 0.0173106
6 *252:40 0.0228312
7 gpio_dm0[38] *560:19 0
8 *252:40 *295:20 0.000186413
9 *252:40 *375:13 0.000112686
10 *252:40 *558:18 0.000378626
11 *252:42 gpio_ib_mode_sel[38] 0.000445008
12 *252:42 *692:13 0.000198909
13 *252:48 *434:13 0.00353556
14 *252:50 *560:19 0.00671967
15 gpio_analog_en[38] gpio_dm0[38] 0
16 gpio_analog_pol[38] gpio_dm0[38] 0.000260276
17 *120:10 *252:40 0.000131319
18 *120:10 *252:42 0
19 *208:30 *252:40 0.00516749
20 *208:32 *252:40 1.30486e-05
21 *208:32 *252:42 0.0255385
*RES
1 *874:gpio_dm0[38] *252:40 28.0443 
2 *252:40 *252:42 61.0436 
3 *252:42 *252:48 12.4522 
4 *252:48 *252:50 126.875 
5 *252:50 gpio_dm0[38] 35.5268 
*END

*D_NET *253 0.176743
*CONN
*P gpio_dm0[39] O
*I *874:gpio_dm0[39] O *D counter_gpio_config_example
*CAP
1 gpio_dm0[39] 8.86538e-05
2 *874:gpio_dm0[39] 0.0107676
3 *253:25 0.00390702
4 *253:23 0.00603198
5 *253:17 0.0143095
6 *253:15 0.0120959
7 *253:13 0.0400115
8 *253:11 0.0507791
9 *253:11 *294:11 0.000268681
10 *253:11 *398:11 0
11 *253:11 *430:19 0
12 *253:11 *540:11 0
13 *253:13 *540:13 0.00601143
14 *253:17 *258:17 0
15 *253:17 *390:17 0.0318257
16 gpio_analog_en[39] *253:25 0
17 gpio_analog_pol[39] *253:25 0
18 *243:11 *253:11 0.000645626
*RES
1 *874:gpio_dm0[39] *253:11 30.2815 
2 *253:11 *253:13 806.411 
3 *253:13 *253:15 3.41 
4 *253:15 *253:17 50.3495 
5 *253:17 *253:23 47.8743 
6 *253:23 *253:25 73.9286 
7 *253:25 gpio_dm0[39] 1.86607 
*END

*D_NET *254 0.41595
*CONN
*P gpio_dm0[3] O
*I *874:gpio_dm0[3] O *D counter_gpio_config_example
*CAP
1 gpio_dm0[3] 0.00156022
2 *874:gpio_dm0[3] 0.0130859
3 *254:17 0.0881059
4 *254:15 0.0996316
5 gpio_dm0[3] *342:25 0
6 gpio_dm0[3] *833:13 0
7 *254:15 *319:7 4.68544e-05
8 *254:15 *319:9 0
9 *254:15 *364:9 0
10 *254:15 *474:7 0.00316169
11 *254:17 *298:22 0
12 *104:11 *254:15 0.000345951
13 *122:195 gpio_dm0[3] 0.000574739
14 *122:195 *254:17 0.20818
15 *166:17 gpio_dm0[3] 0
16 *182:13 *254:15 0.000237478
17 *227:11 *254:17 0.00101899
*RES
1 *874:gpio_dm0[3] *254:15 44.2487 
2 *254:15 *254:17 335.193 
3 *254:17 gpio_dm0[3] 12.9636 
*END

*D_NET *255 0.163246
*CONN
*P gpio_dm0[40] O
*I *874:gpio_dm0[40] O *D counter_gpio_config_example
*CAP
1 gpio_dm0[40] 0.000120892
2 *874:gpio_dm0[40] 0.000163711
3 *255:17 0.00376286
4 *255:15 0.00370837
5 *255:13 0.0310742
6 *255:11 0.0310078
7 *255:9 0.0457469
8 *255:7 0.0459106
9 *255:7 *561:11 4.19118e-05
10 *255:9 *561:11 0.000463405
11 gpio_analog_en[40] *255:17 0.000103274
12 *97:11 *255:7 3.6865e-05
13 *97:11 *255:9 0.00110561
14 *167:13 *255:13 0
15 *167:13 *255:17 0
16 *243:17 *255:9 0
*RES
1 *874:gpio_dm0[40] *255:7 0.556167 
2 *255:7 *255:9 119.858 
3 *255:9 *255:11 3.41 
4 *255:11 *255:13 628.357 
5 *255:13 *255:15 1.35714 
6 *255:15 *255:17 73.9286 
7 *255:17 gpio_dm0[40] 2.54464 
*END

*D_NET *256 0.177213
*CONN
*P gpio_dm0[41] O
*I *874:gpio_dm0[41] O *D counter_gpio_config_example
*CAP
1 gpio_dm0[41] 0.000553789
2 *874:gpio_dm0[41] 0.000150968
3 *256:13 0.0263938
4 *256:11 0.02584
5 *256:9 0.0598473
6 *256:7 0.0599983
7 gpio_dm0[41] *478:9 6.27788e-05
8 gpio_dm0[41] *828:13 0.000439038
9 *256:7 *339:33 4.72078e-05
10 *256:9 *262:9 0
11 *256:9 *339:33 5.12403e-05
12 *256:9 *405:9 0
13 gpio_analog_pol[41] gpio_dm0[41] 0
14 *124:21 gpio_dm0[41] 0
15 *124:21 *256:13 0.00378058
16 *160:15 *256:7 4.82943e-05
*RES
1 *874:gpio_dm0[41] *256:7 0.556167 
2 *256:7 *256:9 162.521 
3 *256:9 *256:11 3.41 
4 *256:11 *256:13 541.696 
5 *256:13 gpio_dm0[41] 14.8638 
*END

*D_NET *257 0.276406
*CONN
*P gpio_dm0[42] O
*I *874:gpio_dm0[42] O *D counter_gpio_config_example
*CAP
1 gpio_dm0[42] 0.000232369
2 *874:gpio_dm0[42] 0.000200817
3 *257:19 0.0096494
4 *257:13 0.0562115
5 *257:11 0.0467945
6 *257:9 0.0617673
7 *257:7 0.0619681
8 *257:7 *390:11 3.14194e-05
9 *257:7 *541:11 3.55467e-05
10 *257:9 *356:9 0
11 *257:9 *390:11 0.00164
12 *257:9 *541:11 0.00209627
13 *257:13 *564:14 0
14 *257:19 *345:23 0.0231896
15 *257:19 *433:22 0.00527743
16 *257:19 *478:9 0.0038203
17 *257:19 *828:13 0.00332892
18 *169:25 gpio_dm0[42] 0.000162448
*RES
1 *874:gpio_dm0[42] *257:7 0.556167 
2 *257:7 *257:9 163.602 
3 *257:9 *257:11 3.41 
4 *257:11 *257:13 951.518 
5 *257:13 *257:19 49.6025 
6 *257:19 gpio_dm0[42] 5.97321 
*END

*D_NET *258 0.343971
*CONN
*P gpio_dm0[43] O
*I *874:gpio_dm0[43] O *D counter_gpio_config_example
*CAP
1 gpio_dm0[43] 0.00102968
2 *874:gpio_dm0[43] 0.00724099
3 *258:21 0.00535271
4 *258:19 0.00432303
5 *258:17 0.0770727
6 *258:15 0.0770727
7 *258:13 0.0424627
8 *258:11 0.0497037
9 *258:11 *351:7 3.0855e-05
10 *258:11 *351:9 0.00150938
11 *258:11 *408:11 0.000992183
12 *258:13 *401:13 0.00138257
13 *258:13 *430:15 0.00546346
14 *258:17 *390:17 0
15 *258:17 *473:11 0.0338354
16 *258:17 *741:9 0
17 *98:13 *258:13 0.0213311
18 *126:21 gpio_dm0[43] 0
19 *126:21 *258:21 0.00444912
20 *145:11 *258:11 0
21 *170:21 gpio_dm0[43] 0
22 *177:13 *258:13 0.0107183
23 *253:17 *258:17 0
*RES
1 *874:gpio_dm0[43] *258:11 22.7865 
2 *258:11 *258:13 949.696 
3 *258:13 *258:15 3.41 
4 *258:15 *258:17 229.723 
5 *258:17 *258:19 3.41 
6 *258:19 *258:21 104.705 
7 *258:21 gpio_dm0[43] 29.0357 
*END

*D_NET *259 0.489632
*CONN
*P gpio_dm0[4] O
*I *874:gpio_dm0[4] O *D counter_gpio_config_example
*CAP
1 gpio_dm0[4] 0.00136457
2 *874:gpio_dm0[4] 0.0155812
3 *259:40 0
4 *259:29 0.0969441
5 *259:27 0.096352
6 *259:17 0.0124753
7 *259:15 0.0272839
8 gpio_dm0[4] *833:13 0
9 *259:15 *332:7 0.00071486
10 *259:15 *369:7 0.000387441
11 *259:15 *418:7 0
12 *259:15 *550:7 2.1479e-05
13 *259:17 *295:20 0.000737306
14 *259:17 *329:9 0.0001365
15 *259:17 *421:9 0.00817769
16 *259:17 *565:9 0.00871156
17 *259:27 *734:9 0.00213262
18 *259:27 *735:9 0.00214627
19 *259:29 *278:25 0.0078532
20 *259:29 *282:17 0.00639943
21 *259:29 *286:19 0.000101601
22 *259:29 *562:9 0.00409562
23 *259:29 *661:17 0.00482258
24 *259:29 *694:9 0.00324351
25 *259:29 *716:19 0.00456112
26 *259:29 *733:11 0.00270473
27 *259:29 *735:9 0.000326917
28 *259:29 *787:9 0.00100503
29 *259:29 *793:11 0.000691448
30 *259:29 *804:9 0.126903
31 gpio_analog_en[4] gpio_dm0[4] 0.00142981
32 gpio_analog_pol[4] gpio_dm0[4] 0.00193824
33 *99:9 *259:27 2.11419e-05
34 *101:9 *259:17 0.000263916
35 *198:7 *259:15 1.47728e-05
36 *215:9 *259:17 0.0238714
37 *217:9 *259:17 0.0258435
38 *238:17 *259:29 0.000374517
*RES
1 *874:gpio_dm0[4] *259:15 46.9495 
2 *259:15 *259:17 525.911 
3 *259:17 *259:27 15.1751 
4 *259:27 *259:29 2661.14 
5 *259:29 gpio_dm0[4] 24.1657 
6 gpio_dm0[4] *259:40 0.0762162 
*END

*D_NET *260 0.591043
*CONN
*P gpio_dm0[5] O
*I *874:gpio_dm0[5] O *D counter_gpio_config_example
*CAP
1 gpio_dm0[5] 0.0014766
2 *874:gpio_dm0[5] 0.00350588
3 *260:13 0.136595
4 *260:11 0.135119
5 *260:9 0.0131132
6 *260:7 0.016619
7 gpio_dm0[5] *833:13 0
8 *260:7 *336:7 0.000683907
9 *260:7 *384:7 0.000137248
10 *260:9 *689:13 0.00724247
11 *260:9 *691:13 0.00727576
12 *260:13 *281:19 0
13 *260:13 *304:13 0
14 gpio_analog_en[5] gpio_dm0[5] 0.000392882
15 gpio_analog_en[5] *260:13 0.000967886
16 *128:21 *260:13 0.224735
17 *172:17 gpio_dm0[5] 0.000392882
18 *173:9 *260:9 0.0427861
19 *219:7 *260:7 0
*RES
1 *874:gpio_dm0[5] *260:7 11.4689 
2 *260:7 *260:9 534.411 
3 *260:9 *260:11 3.41 
4 *260:11 *260:13 469.489 
5 *260:13 gpio_dm0[5] 14.1528 
*END

*D_NET *261 0.34363
*CONN
*P gpio_dm0[6] O
*I *874:gpio_dm0[6] O *D counter_gpio_config_example
*CAP
1 gpio_dm0[6] 0.00442174
2 *874:gpio_dm0[6] 0.000197866
3 *261:13 0.0255935
4 *261:11 0.0211717
5 *261:9 0.128564
6 *261:7 0.128762
7 *261:7 *539:7 3.92996e-05
8 *261:9 *539:7 3.3599e-06
9 *261:9 *539:9 0.00746226
10 *261:13 *331:13 0.002221
11 *261:13 *570:14 0.00137991
12 *92:13 *261:13 0.0186057
13 *129:13 gpio_dm0[6] 0.00472277
14 *148:11 *261:7 4.26595e-05
15 *148:11 *261:9 0.000442773
16 *173:13 gpio_dm0[6] 0
*RES
1 *874:gpio_dm0[6] *261:7 0.556167 
2 *261:7 *261:9 358.362 
3 *261:9 *261:11 3.41 
4 *261:11 *261:13 83.7822 
5 *261:13 gpio_dm0[6] 16.2919 
*END

*D_NET *262 0.51336
*CONN
*P gpio_dm0[7] O
*I *874:gpio_dm0[7] O *D counter_gpio_config_example
*CAP
1 gpio_dm0[7] 0.00335746
2 *874:gpio_dm0[7] 0.000149925
3 *262:13 0.114873
4 *262:11 0.111515
5 *262:9 0.131414
6 *262:7 0.131564
7 gpio_dm0[7] gpio_inp_dis[7] 0.00398135
8 *262:7 *339:33 5.53365e-05
9 *262:7 *403:7 3.6865e-05
10 *262:9 *339:33 3.94159e-05
11 *262:9 *403:7 6.00628e-06
12 *262:9 *403:9 0.00729817
13 gpio_analog_en[7] gpio_dm0[7] 0
14 gpio_analog_pol[7] gpio_dm0[7] 0.00194297
15 *131:13 *262:13 0
16 *174:13 gpio_dm0[7] 0.00712712
17 *256:9 *262:9 0
*RES
1 *874:gpio_dm0[7] *262:7 0.556167 
2 *262:7 *262:9 355.912 
3 *262:9 *262:11 3.41 
4 *262:11 *262:13 304.2 
5 *262:13 gpio_dm0[7] 18.1672 
*END

*D_NET *263 0.603662
*CONN
*P gpio_dm0[8] O
*I *874:gpio_dm0[8] O *D counter_gpio_config_example
*CAP
1 gpio_dm0[8] 0.00171838
2 *874:gpio_dm0[8] 0.00510203
3 *263:17 0.133517
4 *263:15 0.131798
5 *263:13 0.125301
6 *263:11 0.130403
7 gpio_dm0[8] *571:26 3.96265e-05
8 *263:11 *419:11 0.00071623
9 *263:13 *310:13 0
10 *263:13 *441:11 0.0130648
11 *263:17 *307:21 0
12 *263:17 *571:26 0
13 gpio_analog_en[8] gpio_dm0[8] 0.000661871
14 gpio_analog_en[8] *263:17 0.00522828
15 gpio_analog_pol[8] gpio_dm0[8] 0
16 *97:13 *263:13 0.0486025
17 *124:13 *263:13 0.00750846
*RES
1 *874:gpio_dm0[8] *263:11 17.2734 
2 *263:11 *263:13 348.731 
3 *263:13 *263:15 3.41 
4 *263:15 *263:17 353.642 
5 *263:17 gpio_dm0[8] 14.047 
*END

*D_NET *264 0.856958
*CONN
*P gpio_dm0[9] O
*I *874:gpio_dm0[9] O *D counter_gpio_config_example
*CAP
1 gpio_dm0[9] 0.00107647
2 *874:gpio_dm0[9] 0.000625145
3 *264:13 0.115361
4 *264:11 0.114285
5 *264:9 0.0555521
6 *264:7 0.0561772
7 *264:7 *554:7 0.000109087
8 *264:9 *384:9 0.0146724
9 *264:13 *308:17 0
10 gpio_analog_pol[9] gpio_dm0[9] 0.000395582
11 *132:13 gpio_dm0[9] 0.00194297
12 *132:13 *264:13 0.290917
13 *135:9 *264:7 8.79055e-05
14 *201:7 *264:7 0
15 *223:9 *264:9 0.000809397
16 *224:9 *264:9 0.15566
17 *228:9 *264:9 0.0492859
*RES
1 *874:gpio_dm0[9] *264:7 4.91087 
2 *264:7 *264:9 2117.84 
3 *264:9 *264:11 3.41 
4 *264:11 *264:13 462.931 
5 *264:13 gpio_dm0[9] 11.6741 
*END

*D_NET *265 0.385296
*CONN
*P gpio_dm1[0] O
*I *874:gpio_dm1[0] O *D counter_gpio_config_example
*CAP
1 gpio_dm1[0] 0.0128641
2 *874:gpio_dm1[0] 0.000140579
3 *265:13 0.0615556
4 *265:11 0.0486915
5 *265:9 0.130936
6 *265:7 0.131076
7 *265:7 *346:11 2.57346e-05
8 *265:9 *346:11 2.43137e-06
9 *265:9 *567:31 0
10 gpio_analog_en[0] gpio_dm1[0] 3.7538e-06
11 *176:11 *265:7 0
12 *176:11 *265:9 0
13 *221:17 gpio_dm1[0] 0
*RES
1 *874:gpio_dm1[0] *265:7 0.412033 
2 *265:7 *265:9 339.913 
3 *265:9 *265:11 3.41 
4 *265:11 *265:13 141.736 
5 *265:13 gpio_dm1[0] 35.0621 
*END

*D_NET *266 0.74616
*CONN
*P gpio_dm1[10] O
*I *874:gpio_dm1[10] O *D counter_gpio_config_example
*CAP
1 gpio_dm1[10] 0.00335754
2 *874:gpio_dm1[10] 0.00977334
3 *266:21 0.176546
4 *266:19 0.173188
5 *266:17 0.0575824
6 *266:15 0.0673558
7 *266:15 *288:7 0
8 *266:15 *300:7 7.40673e-05
9 *266:15 *391:9 0.0153981
10 *266:15 *434:9 0.000556214
11 *266:15 *532:17 0
12 *266:17 *324:17 0
13 *266:21 *750:17 0
14 *90:17 *266:21 0
15 *129:9 *266:17 0.0124236
16 *132:7 *266:15 6.58294e-06
17 *132:9 *266:17 0.0198257
18 *135:11 *266:17 0.173315
19 *139:9 *266:17 0.00328224
20 *141:9 *266:17 0.0334174
21 *242:7 *266:15 5.71937e-05
*RES
1 *874:gpio_dm1[10] *266:15 45.4173 
2 *266:15 *266:17 2135.45 
3 *266:17 *266:19 3.41 
4 *266:19 *266:21 458.571 
5 *266:21 gpio_dm1[10] 7.38918 
*END

*D_NET *267 0.525783
*CONN
*P gpio_dm1[11] O
*I *874:gpio_dm1[11] O *D counter_gpio_config_example
*CAP
1 gpio_dm1[11] 0.000139274
2 *874:gpio_dm1[11] 0.0163883
3 *267:17 0.119981
4 *267:15 0.119842
5 *267:13 0.124466
6 *267:11 0.140854
7 *267:11 *313:7 3.42149e-05
8 *267:11 *313:9 0.00381857
9 *91:21 *267:17 0
10 *112:11 *267:11 0.000260378
11 *211:11 *267:11 0
*RES
1 *874:gpio_dm1[11] *267:11 48.5504 
2 *267:11 *267:13 365.776 
3 *267:13 *267:15 3.41 
4 *267:15 *267:17 325.979 
5 *267:17 gpio_dm1[11] 0.46765 
*END

*D_NET *268 0.816131
*CONN
*P gpio_dm1[12] O
*I *874:gpio_dm1[12] O *D counter_gpio_config_example
*CAP
1 gpio_dm1[12] 4.39203e-05
2 *874:gpio_dm1[12] 0.00933335
3 *268:21 0.182474
4 *268:19 0.18243
5 *268:17 0.0939655
6 *268:15 0.103299
7 *268:15 *284:9 0.0094912
8 *268:15 *406:7 0.000345801
9 *268:17 *374:9 0.0208075
10 gpio_analog_en[12] *268:21 0.00376865
11 *107:9 *268:17 0.00640916
12 *119:7 *268:15 0.00112536
13 *162:9 *268:17 0.00560866
14 *178:15 *268:15 3.67115e-05
15 *178:17 *268:17 0.18557
16 *193:9 *268:17 0
17 *196:9 *268:15 0
18 *241:19 *268:17 0.0114212
*RES
1 *874:gpio_dm1[12] *268:15 42.9483 
2 *268:15 *268:17 2766.88 
3 *268:17 *268:19 3.41 
4 *268:19 *268:21 475.626 
5 *268:21 gpio_dm1[12] 0.135517 
*END

*D_NET *269 0.615485
*CONN
*P gpio_dm1[13] O
*I *874:gpio_dm1[13] O *D counter_gpio_config_example
*CAP
1 gpio_dm1[13] 0.000226992
2 *874:gpio_dm1[13] 0.000218134
3 *269:17 0.118208
4 *269:15 0.117981
5 *269:13 0.169296
6 *269:11 0.169296
7 *269:9 0.0198379
8 *269:7 0.020056
9 *269:7 *297:7 0
10 *269:9 *297:9 0
11 *269:9 *364:9 0
12 *269:13 *308:13 0
13 *269:17 *753:25 0
14 *93:21 *269:17 0
15 *166:13 *269:13 0
16 *238:11 *269:7 2.75538e-05
17 *238:11 *269:9 0.000336575
*RES
1 *874:gpio_dm1[13] *269:7 0.556167 
2 *269:7 *269:9 50.0613 
3 *269:9 *269:11 3.41 
4 *269:11 *269:13 496.705 
5 *269:13 *269:15 3.41 
6 *269:15 *269:17 320.502 
7 *269:17 gpio_dm1[13] 0.762183 
*END

*D_NET *270 0.696068
*CONN
*P gpio_dm1[14] O
*I *874:gpio_dm1[14] O *D counter_gpio_config_example
*CAP
1 gpio_dm1[14] 0.000128076
2 *874:gpio_dm1[14] 0.000173457
3 *270:17 0.115633
4 *270:15 0.115505
5 *270:13 0.210492
6 *270:11 0.210492
7 *270:9 0.0214799
8 *270:7 0.0216534
9 *270:9 *335:11 0
10 *270:17 *754:25 0
11 *270:17 *759:9 0
12 *94:17 *270:17 0
13 *149:11 *270:7 3.61021e-05
14 *149:11 *270:9 0.0004357
15 *165:9 *270:9 0
16 *200:11 *270:7 3.98559e-05
*RES
1 *874:gpio_dm1[14] *270:7 0.556167 
2 *270:7 *270:9 55.3942 
3 *270:9 *270:11 3.41 
4 *270:11 *270:13 616.449 
5 *270:13 *270:15 3.41 
6 *270:15 *270:17 315.169 
7 *270:17 gpio_dm1[14] 0.43005 
*END

*D_NET *271 0.78503
*CONN
*P gpio_dm1[15] O
*I *874:gpio_dm1[15] O *D counter_gpio_config_example
*CAP
1 gpio_dm1[15] 7.61682e-05
2 *874:gpio_dm1[15] 0.00074316
3 *271:25 0.158162
4 *271:23 0.158086
5 *271:21 0.11155
6 *271:19 0.115663
7 *271:9 0.0145863
8 *271:7 0.0112163
9 *271:7 *309:7 8.17034e-05
10 *271:7 *532:17 0.0001965
11 *271:9 *360:9 0.036946
12 *271:9 *663:9 0
13 *271:19 *323:15 0.000269836
14 *271:19 *544:17 0.016536
15 *271:19 *668:5 0
16 *271:19 *704:5 6.40202e-05
17 *271:21 *323:15 0.000124728
18 *271:21 *743:17 0.0558522
19 *271:21 *781:15 0.000120342
20 *103:27 *271:21 0.000179039
21 *104:27 *271:19 0.00220354
22 *147:23 *271:19 0.0181605
23 *229:9 *271:9 0.000643206
24 *233:9 *271:9 0.0259229
25 *233:19 *271:19 0.000750254
26 *233:21 *271:21 0.056896
*RES
1 *874:gpio_dm1[15] *271:7 5.19913 
2 *271:7 *271:9 477.339 
3 *271:9 *271:19 43.7638 
4 *271:19 *271:21 2319.02 
5 *271:21 *271:23 4.5 
6 *271:23 *271:25 3133.44 
7 *271:25 gpio_dm1[15] 1.60714 
*END

*D_NET *272 1.01817
*CONN
*P gpio_dm1[16] O
*I *874:gpio_dm1[16] O *D counter_gpio_config_example
*CAP
1 gpio_dm1[16] 0.000909225
2 *874:gpio_dm1[16] 0.00450061
3 *272:21 0.0287994
4 *272:19 0.0291718
5 *272:9 0.146098
6 *272:7 0.149317
7 *272:7 *393:7 0.00125944
8 *272:9 gpio_slow_sel[33] 0.000848036
9 *272:9 *288:9 0.00212837
10 *272:9 *382:9 0
11 *272:9 *396:17 0.000266715
12 *272:9 *469:11 0
13 *272:19 *279:13 0.00373523
14 *272:21 gpio_dm2[19] 0.000477637
15 *272:21 *274:13 0.0064471
16 *272:21 *366:13 0.000143002
17 *95:9 *272:19 0
18 *96:13 *272:21 0
19 *102:9 *272:19 0
20 *161:7 *272:7 0.00125546
21 *183:19 *272:19 0.000715142
22 *183:21 *272:21 0.21807
23 *184:19 *272:19 0.00169514
24 *184:21 *272:21 0.215131
25 *189:13 *272:21 0.0162084
26 *201:9 *272:9 0.0173518
27 *220:17 *272:9 0.173636
*RES
1 *874:gpio_dm1[16] *272:7 16.5857 
2 *272:7 *272:9 3768.66 
3 *272:9 *272:19 21.5717 
4 *272:19 *272:21 2064.38 
5 *272:21 gpio_dm1[16] 22.3214 
*END

*D_NET *273 0.524364
*CONN
*P gpio_dm1[17] O
*I *874:gpio_dm1[17] O *D counter_gpio_config_example
*CAP
1 gpio_dm1[17] 0.173523
2 *874:gpio_dm1[17] 0.000118969
3 *273:11 0.173523
4 *273:9 0.0809313
5 *273:7 0.0810503
6 *273:7 *357:17 2.90709e-05
7 *273:9 *276:11 0.0143703
8 *273:9 *357:17 0.000781226
9 *273:9 *409:11 0
10 *158:9 *273:7 3.28247e-05
11 *158:9 *273:9 3.81183e-06
12 *243:17 *273:9 0
*RES
1 *874:gpio_dm1[17] *273:7 0.412033 
2 *273:7 *273:9 220.823 
3 *273:9 *273:11 3.41 
4 *273:11 gpio_dm1[17] 3565.81 
*END

*D_NET *274 0.969525
*CONN
*P gpio_dm1[18] O
*I *874:gpio_dm1[18] O *D counter_gpio_config_example
*CAP
1 gpio_dm1[18] 0.000999818
2 *874:gpio_dm1[18] 0.0021687
3 *274:13 0.049321
4 *274:11 0.0483212
5 *274:9 0.12324
6 *274:7 0.125409
7 gpio_dm1[18] *450:13 0
8 *274:7 *547:7 0.000666331
9 *274:9 *283:17 0.0312525
10 *274:9 *325:9 0.00991764
11 *274:9 *470:11 0
12 *274:9 *471:11 0
13 *274:13 gpio_dm1[19] 0
14 *274:13 gpio_dm2[18] 0
15 *274:13 gpio_dm2[19] 0.0061066
16 *274:13 *361:13 0.156411
17 *274:13 *365:13 0.0783995
18 gpio_analog_en[35] *274:9 0.000740426
19 *95:9 *274:9 1.95443e-05
20 *96:9 *274:9 0.312514
21 *101:17 *274:13 0.00138844
22 *150:7 *274:7 0.000666331
23 *154:9 *274:9 0
24 *154:17 *274:9 0.0019357
25 *184:19 *274:9 0.000195308
26 *184:21 *274:13 0.0064471
27 *197:9 *274:9 0.000138802
28 *249:9 *274:9 0.00681912
29 *272:21 *274:13 0.0064471
*RES
1 *874:gpio_dm1[18] *274:7 10.0997 
2 *274:7 *274:9 3940.48 
3 *274:9 *274:11 3.41 
4 *274:11 *274:13 251.776 
5 *274:13 gpio_dm1[18] 23.5082 
*END

*D_NET *275 0.409927
*CONN
*P gpio_dm1[19] O
*I *874:gpio_dm1[19] O *D counter_gpio_config_example
*CAP
1 gpio_dm1[19] 0.00423262
2 *874:gpio_dm1[19] 0.0001504
3 *275:13 0.18126
4 *275:11 0.177027
5 *275:9 0.020018
6 *275:7 0.0201684
7 gpio_dm1[19] gpio_dm2[19] 0
8 gpio_dm1[19] gpio_out[19] 0
9 *275:7 *348:7 4.51034e-05
10 *275:7 *348:9 6.90276e-06
11 *275:7 *378:11 4.51034e-05
12 *275:9 *348:9 0.00686614
13 *275:9 *378:11 0.000106827
14 *275:9 *555:11 0
15 *274:13 gpio_dm1[19] 0
*RES
1 *874:gpio_dm1[19] *275:7 0.556167 
2 *275:7 *275:9 61.9883 
3 *275:9 *275:11 3.41 
4 *275:11 *275:13 3630.23 
5 *275:13 gpio_dm1[19] 30.7255 
*END

*D_NET *276 0.484122
*CONN
*P gpio_dm1[1] O
*I *874:gpio_dm1[1] O *D counter_gpio_config_example
*CAP
1 gpio_dm1[1] 0.00981569
2 *874:gpio_dm1[1] 5.65924e-05
3 *276:17 0.0219179
4 *276:11 0.219796
5 *276:9 0.20775
6 *276:11 *409:11 0.0014612
7 gpio_analog_en[1] gpio_dm1[1] 0.00620538
8 gpio_analog_pol[1] gpio_dm1[1] 0
9 gpio_dm0[1] gpio_dm1[1] 0.00034597
10 *137:17 *276:17 0
11 *155:25 gpio_dm1[1] 0
12 *232:18 gpio_dm1[1] 1.43076e-05
13 *251:26 *276:11 0.00238855
14 *273:9 *276:11 0.0143703
*RES
1 *874:gpio_dm1[1] *276:9 3.92003 
2 *276:9 *276:11 49.8137 
3 *276:11 *276:17 38.5669 
4 *276:17 gpio_dm1[1] 38.0124 
*END

*D_NET *277 0.37975
*CONN
*P gpio_dm1[20] O
*I *874:gpio_dm1[20] O *D counter_gpio_config_example
*CAP
1 gpio_dm1[20] 8.42969e-05
2 *874:gpio_dm1[20] 0.0101859
3 *277:13 0.131822
4 *277:11 0.141924
5 *277:11 *386:7 3.6865e-05
6 *277:11 *386:9 0.00264546
7 *277:13 *445:11 0.0903693
8 *181:7 *277:11 4.19118e-05
9 *181:9 *277:11 0.00264041
*RES
1 *874:gpio_dm1[20] *277:11 34.8217 
2 *277:11 *277:13 3506.98 
3 *277:13 gpio_dm1[20] 1.60714 
*END

*D_NET *278 0.423004
*CONN
*P gpio_dm1[21] O
*I *874:gpio_dm1[21] O *D counter_gpio_config_example
*CAP
1 gpio_dm1[21] 8.42969e-05
2 *874:gpio_dm1[21] 0.00129224
3 *278:29 0.159549
4 *278:27 0.159465
5 *278:25 0.001232
6 *278:23 0.001232
7 *278:21 0.000923139
8 *278:13 0.0189426
9 *278:11 0.0193117
10 *278:11 *303:7 4.05817e-05
11 *278:11 *303:9 0.000221372
12 *278:11 *310:11 0
13 *278:11 *672:17 0.000374287
14 *278:13 *474:11 0
15 *278:13 *672:13 0
16 *278:13 *705:41 0
17 *278:21 *367:17 4.75587e-05
18 *278:21 *661:21 0.00282282
19 *278:21 *705:41 0.0027336
20 *278:25 *787:9 0.00107712
21 *278:25 *804:9 0.00785155
22 *104:13 *278:13 0.0168811
23 *106:13 *278:21 0
24 *108:13 *278:13 0.0150273
25 *112:13 *278:13 0.006019
26 *137:11 *278:11 2.22376e-05
27 *259:29 *278:25 0.0078532
*RES
1 *874:gpio_dm1[21] *278:11 7.22013 
2 *278:11 *278:13 540.027 
3 *278:13 *278:21 48.4464 
4 *278:21 *278:23 4.5 
5 *278:23 *278:25 74.875 
6 *278:25 *278:27 4.5 
7 *278:27 *278:29 3148.92 
8 *278:29 gpio_dm1[21] 1.60714 
*END

*D_NET *279 0.547991
*CONN
*P gpio_dm1[22] O
*I *874:gpio_dm1[22] O *D counter_gpio_config_example
*CAP
1 gpio_dm1[22] 0.00113123
2 *874:gpio_dm1[22] 0.00597399
3 *279:13 0.0159378
4 *279:11 0.0148065
5 *279:9 0.155794
6 *279:7 0.161768
7 *279:7 *325:7 0.000584252
8 *279:9 *395:9 0.150586
9 *279:9 *735:13 0
10 *279:9 *823:10 0
11 *279:13 *361:13 0.0370445
12 *279:13 *676:9 0
13 *91:7 *279:7 0.000449337
14 *163:7 *279:7 0
15 *184:19 *279:13 0.000180085
16 *272:19 *279:13 0.00373523
*RES
1 *874:gpio_dm1[22] *279:7 18.7477 
2 *279:7 *279:9 3884.62 
3 *279:9 *279:11 3.41 
4 *279:11 *279:13 59.7182 
5 *279:13 gpio_dm1[22] 24.7225 
*END

*D_NET *280 0.614099
*CONN
*P gpio_dm1[23] O
*I *874:gpio_dm1[23] O *D counter_gpio_config_example
*CAP
1 gpio_dm1[23] 0.00438449
2 *874:gpio_dm1[23] 0.00722106
3 *280:9 0.129005
4 *280:7 0.131842
5 *280:9 *289:9 0.00186808
6 *280:9 *366:9 0.286259
7 *280:9 *373:17 0.0214172
8 gpio_analog_en[23] gpio_dm1[23] 0
9 *96:7 *280:7 0.000537087
10 *99:13 gpio_dm1[23] 0.00302672
11 *157:9 *280:9 0.000817262
12 *161:9 *280:9 0.00829299
13 *163:9 *280:9 0.00124534
14 *191:13 gpio_dm1[23] 0.0103944
15 *206:11 *280:9 0.00544797
16 *228:7 *280:7 0.000127704
17 *248:9 *280:9 0.00221188
*RES
1 *874:gpio_dm1[23] *280:7 20.9097 
2 *280:7 *280:9 3863.98 
3 *280:9 gpio_dm1[23] 32.0469 
*END

*D_NET *281 0.658413
*CONN
*P gpio_dm1[24] O
*I *874:gpio_dm1[24] O *D counter_gpio_config_example
*CAP
1 gpio_dm1[24] 2.58952e-05
2 *874:gpio_dm1[24] 0.00215012
3 *281:25 0.0377095
4 *281:23 0.0376836
5 *281:21 0.131876
6 *281:19 0.131914
7 *281:13 0.0374226
8 *281:11 0.0395345
9 *281:11 *298:16 0.000495934
10 *281:11 *419:11 0.000880224
11 *281:13 *357:17 0.000309406
12 *281:13 *376:13 0.000559667
13 *281:13 *419:15 0.000463187
14 *281:13 *444:11 0
15 *281:13 *683:13 0
16 *281:13 *749:25 0
17 *281:13 *826:18 0
18 *281:19 *797:9 5.0027e-06
19 *281:21 *326:21 0
20 *281:21 *423:13 0.000949693
21 *281:25 gpio_slow_sel[24] 0
22 *281:25 *402:13 0.00079651
23 *281:25 *666:21 0.0661769
24 *131:7 *281:11 5.53365e-05
25 *131:9 *281:11 0.000822308
26 *153:13 *281:21 0
27 *239:13 *281:13 0.0100966
28 *239:21 *281:13 0.0050204
29 *239:21 *281:21 0.153465
30 *260:13 *281:19 0
*RES
1 *874:gpio_dm1[24] *281:11 11.4 
2 *281:11 *281:13 791.839 
3 *281:13 *281:19 6.90303 
4 *281:19 *281:21 496.492 
5 *281:21 *281:23 3.41 
6 *281:23 *281:25 132.986 
7 *281:25 gpio_dm1[24] 0.08695 
*END

*D_NET *282 0.470451
*CONN
*P gpio_dm1[25] O
*I *874:gpio_dm1[25] O *D counter_gpio_config_example
*CAP
1 gpio_dm1[25] 3.47603e-05
2 *874:gpio_dm1[25] 0.00237905
3 *282:33 0.0453845
4 *282:31 0.0453497
5 *282:29 0.101539
6 *282:27 0.101715
7 *282:17 0.0013148
8 *282:15 0.00113908
9 *282:13 0.0068814
10 *282:11 0.00926046
11 *282:11 *299:7 3.99467e-05
12 *282:11 *299:9 0.000416733
13 *282:13 *415:13 0.000154703
14 *282:13 *479:11 0
15 *282:17 *694:9 0.000569045
16 *282:17 *716:19 0.000180901
17 *282:27 *425:17 4.73891e-05
18 *282:29 *451:13 0
19 *282:29 *453:17 0.0965007
20 *282:33 *766:9 0
21 *106:25 *282:33 0
22 *121:11 *282:11 0
23 *148:13 *282:13 6.20705e-05
24 *149:13 *282:13 0.0266075
25 *205:13 *282:13 0.0171839
26 *238:17 *282:17 0.00586403
27 *240:19 *282:27 5.11566e-05
28 *246:27 *282:13 0.000248519
29 *246:35 *282:13 0.000942137
30 *246:37 *282:13 0.000185417
31 *259:29 *282:17 0.00639943
*RES
1 *874:gpio_dm1[25] *282:11 9.31007 
2 *282:11 *282:13 330.259 
3 *282:13 *282:15 4.5 
4 *282:15 *282:17 61.3214 
5 *282:17 *282:27 13.5012 
6 *282:27 *282:29 396.031 
7 *282:29 *282:31 3.41 
8 *282:31 *282:33 120.159 
9 *282:33 gpio_dm1[25] 0.116717 
*END

*D_NET *283 0.569758
*CONN
*P gpio_dm1[26] O
*I *874:gpio_dm1[26] O *D counter_gpio_config_example
*CAP
1 gpio_dm1[26] 0.0104339
2 *874:gpio_dm1[26] 0.00220023
3 *283:17 0.0741114
4 *283:15 0.0639751
5 *283:9 0.0162225
6 *283:7 0.0181251
7 *283:9 *377:9 0.0587823
8 *283:9 *402:9 0.0156991
9 *283:9 *779:18 0.000946973
10 *283:15 *380:17 0
11 *283:15 *556:17 0
12 *283:17 *325:9 0.00365934
13 gpio_analog_en[26] gpio_dm1[26] 0.000649426
14 gpio_analog_sel[34] *283:15 0.000286749
15 *91:9 *283:9 0.00225987
16 *91:17 *283:9 0.0139688
17 *95:9 *283:17 0.00711081
18 *96:9 *283:17 0.0157242
19 *105:17 *283:17 0
20 *115:9 *283:9 0.0108373
21 *123:9 *283:9 0.00993975
22 *154:9 *283:9 0.000475132
23 *154:17 *283:17 0.111365
24 *174:9 *283:17 0.0870709
25 *183:7 *283:7 0.000468037
26 *196:7 *283:7 0.000468037
27 *197:9 *283:17 0.0137248
28 *274:9 *283:17 0.0312525
*RES
1 *874:gpio_dm1[26] *283:7 9.30693 
2 *283:7 *283:9 848.911 
3 *283:9 *283:15 7.6237 
4 *283:15 *283:17 340.634 
5 *283:17 gpio_dm1[26] 29.184 
*END

*D_NET *284 0.471098
*CONN
*P gpio_dm1[27] O
*I *874:gpio_dm1[27] O *D counter_gpio_config_example
*CAP
1 gpio_dm1[27] 0.00846817
2 *874:gpio_dm1[27] 0.00429421
3 *284:9 0.0881243
4 *284:7 0.0839503
5 *284:7 *307:7 0
6 *284:9 *328:9 0
7 *284:9 *374:9 0.000749693
8 *284:9 *822:10 0.0046525
9 gpio_analog_en[27] gpio_dm1[27] 0
10 gpio_dm0[27] gpio_dm1[27] 0
11 *107:9 *284:9 0.192985
12 *162:9 *284:9 0.00416567
13 *163:7 *284:7 0.00114903
14 *178:15 *284:9 0.00833719
15 *193:9 *284:9 0.00357534
16 *193:17 *284:9 0.0611558
17 *196:9 *284:9 0
18 *247:9 *284:9 0
19 *268:15 *284:9 0.0094912
*RES
1 *874:gpio_dm1[27] *284:7 14.9642 
2 *284:7 *284:9 459.206 
3 *284:9 gpio_dm1[27] 24.0015 
*END

*D_NET *285 0.38266
*CONN
*P gpio_dm1[28] O
*I *874:gpio_dm1[28] O *D counter_gpio_config_example
*CAP
1 gpio_dm1[28] 0.00550834
2 *874:gpio_dm1[28] 0.00681246
3 *285:9 0.119068
4 *285:7 0.120372
5 *285:7 *554:7 0.00177675
6 *285:9 *327:9 0
7 *285:9 *413:17 0
8 *285:9 *414:9 0.0381901
9 *285:9 *464:11 0.00427364
10 *109:17 gpio_dm1[28] 0
11 *198:7 *285:7 0.00177149
12 *198:9 *285:9 0
13 *202:9 *285:9 0.0848873
*RES
1 *874:gpio_dm1[28] *285:7 22.6032 
2 *285:7 *285:9 387.828 
3 *285:9 gpio_dm1[28] 15.9864 
*END

*D_NET *286 0.579126
*CONN
*P gpio_dm1[29] O
*I *874:gpio_dm1[29] O *D counter_gpio_config_example
*CAP
1 gpio_dm1[29] 0.00139499
2 *874:gpio_dm1[29] 0.00265386
3 *286:25 0.0334014
4 *286:23 0.0320064
5 *286:21 0.033055
6 *286:19 0.0360003
7 *286:13 0.0178654
8 *286:11 0.0175741
9 gpio_dm1[29] *462:13 0.000298659
10 *286:13 *357:17 0.00162156
11 *286:13 *376:13 0
12 *286:13 *423:13 0.00568886
13 *286:13 *444:11 0.000961388
14 *286:13 *446:11 0.00268228
15 *286:13 *826:18 0.00115869
16 *286:19 *326:19 4.37712e-06
17 *286:19 *787:9 0.00198253
18 gpio_analog_pol[29] *286:25 0
19 gpio_dm0[29] *286:25 0
20 *110:6 *286:21 0.121531
21 *110:10 gpio_dm1[29] 0.00022205
22 *110:10 *286:25 0.0766397
23 *153:13 *286:13 0.0089815
24 *167:7 *286:11 4.87987e-05
25 *167:9 *286:11 0.000664304
26 *176:13 *286:19 0
27 *182:11 *286:11 0.000583561
28 *205:17 *286:19 0.000253401
29 *236:9 *286:21 0.0557201
30 *237:9 *286:21 0.121527
31 *239:21 *286:13 0.00163783
32 *240:19 *286:19 0.00286575
33 *259:29 *286:19 0.000101601
*RES
1 *874:gpio_dm1[29] *286:11 10.9316 
2 *286:11 *286:13 50.1177 
3 *286:13 *286:19 14.0737 
4 *286:19 *286:21 260.095 
5 *286:21 *286:23 3.41 
6 *286:23 *286:25 122.668 
7 *286:25 gpio_dm1[29] 13.581 
*END

*D_NET *287 0.290951
*CONN
*P gpio_dm1[2] O
*I *874:gpio_dm1[2] O *D counter_gpio_config_example
*CAP
1 gpio_dm1[2] 0.000206462
2 *874:gpio_dm1[2] 0.000189122
3 *287:17 0.117882
4 *287:15 0.122394
5 *287:9 0.0248395
6 *287:7 0.0203098
7 *287:7 *358:7 0
8 *287:7 *387:7 3.53138e-05
9 *287:9 *358:9 0
10 *287:9 *387:7 5.05304e-06
11 *287:9 *387:9 0.005069
12 *287:15 *355:13 2.05803e-05
13 *287:17 *771:21 0
14 gpio_analog_en[2] *287:17 0
*RES
1 *874:gpio_dm1[2] *287:7 0.556167 
2 *287:7 *287:9 57.7003 
3 *287:9 *287:15 20.1837 
4 *287:15 *287:17 312.863 
5 *287:17 gpio_dm1[2] 0.69325 
*END

*D_NET *288 0.382815
*CONN
*P gpio_dm1[30] O
*I *874:gpio_dm1[30] O *D counter_gpio_config_example
*CAP
1 gpio_dm1[30] 0.00813738
2 *874:gpio_dm1[30] 0.00627366
3 *288:9 0.0724724
4 *288:7 0.0706087
5 gpio_dm1[30] *772:17 0
6 *288:7 *344:17 7.65483e-05
7 *288:7 *532:17 1.74439e-05
8 *288:9 *382:9 0.00330855
9 *288:9 *383:9 0.000222326
10 *288:9 *396:17 0.00425673
11 gpio_analog_en[30] gpio_dm1[30] 0
12 gpio_dm0[30] gpio_dm1[30] 0
13 *150:9 *288:9 0
14 *152:17 *288:9 0.0804799
15 *201:7 *288:7 0
16 *201:9 *288:9 0.132705
17 *220:17 *288:9 0.00212837
18 *266:15 *288:7 0
19 *272:9 *288:9 0.00212837
*RES
1 *874:gpio_dm1[30] *288:7 17.1262 
2 *288:7 *288:9 322.95 
3 *288:9 gpio_dm1[30] 21.9523 
*END

*D_NET *289 0.256452
*CONN
*P gpio_dm1[31] O
*I *874:gpio_dm1[31] O *D counter_gpio_config_example
*CAP
1 gpio_dm1[31] 0.0061364
2 *874:gpio_dm1[31] 0.00772827
3 *289:9 0.0626177
4 *289:7 0.0642096
5 gpio_dm1[31] *773:17 0
6 *289:7 *366:7 0.00132613
7 *289:7 *402:7 0
8 *289:7 *431:7 0.000312052
9 *289:9 *336:9 0
10 *289:9 *366:9 0.00373617
11 *289:9 *373:17 0.00690165
12 *289:9 *413:17 0.000279064
13 *113:17 gpio_dm1[31] 0
14 *157:17 *289:9 0.0580658
15 *159:9 *289:9 0
16 *242:9 *289:9 0
17 *248:9 *289:9 0.0432708
18 *280:9 *289:9 0.00186808
*RES
1 *874:gpio_dm1[31] *289:7 21.4502 
2 *289:7 *289:9 262.332 
3 *289:9 gpio_dm1[31] 17.1458 
*END

*D_NET *290 0.266436
*CONN
*P gpio_dm1[32] O
*I *874:gpio_dm1[32] O *D counter_gpio_config_example
*CAP
1 gpio_dm1[32] 0.00053526
2 *874:gpio_dm1[32] 0.000735038
3 *290:21 0.0173772
4 *290:19 0.016842
5 *290:17 0.0383203
6 *290:15 0.0383203
7 *290:13 0.00663933
8 *290:11 0.00737436
9 *290:11 *318:7 4.31383e-05
10 *290:11 *318:9 0.000132329
11 *290:13 *335:13 0.000539036
12 *290:13 *337:13 0.0134252
13 *290:13 *381:13 0.0220663
14 *290:13 *556:13 0.0011866
15 *290:13 *557:13 0.00108557
16 *290:17 *322:13 0.0510012
17 *290:17 *360:13 0
18 *290:17 *411:15 0
19 *290:17 *543:17 0.00456563
20 *290:17 *553:18 0
21 *290:17 *699:9 0.0053838
22 *290:17 *751:11 0.000212097
23 *290:21 *553:22 0.0405112
24 gpio_analog_en[32] gpio_dm1[32] 0
25 *98:11 *290:11 0.000140501
26 *113:13 *290:13 0
*RES
1 *874:gpio_dm1[32] *290:11 5.41847 
2 *290:11 *290:13 327.982 
3 *290:13 *290:15 3.41 
4 *290:15 *290:17 126.164 
5 *290:17 *290:19 3.41 
6 *290:19 *290:21 505.875 
7 *290:21 gpio_dm1[32] 4.65158 
*END

*D_NET *291 0.224538
*CONN
*P gpio_dm1[33] O
*I *874:gpio_dm1[33] O *D counter_gpio_config_example
*CAP
1 gpio_dm1[33] 0.00633108
2 *874:gpio_dm1[33] 0.00633895
3 *291:9 0.0595173
4 *291:7 0.0595252
5 gpio_dm1[33] gpio_slow_sel[33] 0
6 gpio_dm1[33] *373:15 0.000387841
7 gpio_dm1[33] *467:15 0.000580972
8 *291:7 *328:7 0
9 *291:7 *424:7 0.00142296
10 *291:9 *307:9 0.0308163
11 *291:9 *354:15 0.00238172
12 gpio_analog_en[33] gpio_dm1[33] 0
13 gpio_dm0[33] gpio_dm1[33] 0
14 *129:7 *291:7 3.93829e-05
15 *163:9 *291:9 0
16 *242:9 *291:9 0.0571968
*RES
1 *874:gpio_dm1[33] *291:7 20.2971 
2 *291:7 *291:9 199.158 
3 *291:9 gpio_dm1[33] 18.6184 
*END

*D_NET *292 0.160869
*CONN
*P gpio_dm1[34] O
*I *874:gpio_dm1[34] O *D counter_gpio_config_example
*CAP
1 gpio_dm1[34] 5.34235e-05
2 *874:gpio_dm1[34] 0.000942318
3 *292:17 0.0516888
4 *292:15 0.0516353
5 *292:13 0.00785867
6 *292:11 0.00880098
7 *292:11 *540:11 0.000189802
8 *292:13 *294:13 0.000930111
9 *292:13 *380:13 0.00509868
10 *292:13 *557:13 0
11 *292:17 *748:9 0
12 *292:17 *776:9 0
13 gpio_analog_en[34] *292:17 0
14 *113:13 *292:13 0.0180145
15 *146:13 *292:13 0.0154091
16 *187:11 *292:11 0.00024765
*RES
1 *874:gpio_dm1[34] *292:11 6.06707 
2 *292:11 *292:13 339.518 
3 *292:13 *292:15 3.41 
4 *292:15 *292:17 127.69 
5 *292:17 gpio_dm1[34] 0.179383 
*END

*D_NET *293 0.252259
*CONN
*P gpio_dm1[35] O
*I *874:gpio_dm1[35] O *D counter_gpio_config_example
*CAP
1 gpio_dm1[35] 0.000548042
2 *874:gpio_dm1[35] 0.000805582
3 *293:21 0.0022827
4 *293:19 0.00173466
5 *293:17 0.0192426
6 *293:15 0.0192426
7 *293:13 0.0033708
8 *293:11 0.00417638
9 *293:11 *368:39 0.000192806
10 *293:13 *381:13 0.0174545
11 *293:13 *556:13 0.000158398
12 *293:13 *557:13 0.0173591
13 *293:17 *337:17 0.0780341
14 *293:17 *338:17 0.0775609
15 *293:17 *557:17 8.81562e-05
16 *293:17 *829:16 0.00150794
17 *293:21 *427:21 0.00413914
18 gpio_analog_en[35] gpio_dm1[35] 0
19 *94:11 *293:11 0.000158545
20 *113:13 *293:13 0
21 *117:17 *293:17 0.000199587
22 *205:11 *293:11 0.000140517
23 *215:33 *293:17 0.00386257
*RES
1 *874:gpio_dm1[35] *293:11 5.5626 
2 *293:11 *293:13 217.482 
3 *293:13 *293:15 3.41 
4 *293:15 *293:17 126.164 
5 *293:17 *293:19 3.41 
6 *293:19 *293:21 51.7321 
7 *293:21 gpio_dm1[35] 4.47847 
*END

*D_NET *294 0.143176
*CONN
*P gpio_dm1[36] O
*I *874:gpio_dm1[36] O *D counter_gpio_config_example
*CAP
1 gpio_dm1[36] 0.0563905
2 *874:gpio_dm1[36] 0.00101664
3 *294:13 0.0584923
4 *294:11 0.00311844
5 gpio_dm1[36] gpio_slow_sel[36] 0.000666422
6 gpio_dm1[36] *319:9 0.000889483
7 gpio_dm1[36] *368:39 2.46153e-05
8 gpio_dm1[36] *416:23 0
9 gpio_dm1[36] *424:35 0.000104195
10 gpio_dm1[36] *550:9 0.000137544
11 *294:11 *398:11 2.85174e-05
12 *294:13 *557:13 0
13 gpio_dm0[36] gpio_dm1[36] 0.0183246
14 *122:131 gpio_dm1[36] 0.000260336
15 *122:193 gpio_dm1[36] 0.000130168
16 *146:13 *294:13 0.0020764
17 *160:17 gpio_dm1[36] 2.85934e-05
18 *203:11 gpio_dm1[36] 0.000288917
19 *253:11 *294:11 0.000268681
20 *292:13 *294:13 0.000930111
*RES
1 *874:gpio_dm1[36] *294:11 5.995 
2 *294:11 *294:13 59.0179 
3 *294:13 gpio_dm1[36] 34.5212 
*END

*D_NET *295 0.139112
*CONN
*P gpio_dm1[37] O
*I *874:gpio_dm1[37] O *D counter_gpio_config_example
*CAP
1 gpio_dm1[37] 0.0102834
2 *874:gpio_dm1[37] 0.0563227
3 *295:20 0.0666061
4 gpio_dm1[37] gpio_vtrip_sel[37] 0
5 gpio_dm1[37] *395:7 0.000867058
6 gpio_dm1[37] *726:21 0.00138652
7 *295:20 *339:33 0.00183809
8 *295:20 *571:12 0.000793957
9 gpio_analog_pol[37] gpio_dm1[37] 0
10 *120:10 *295:20 4.00874e-05
11 *208:30 *295:20 5.00204e-05
12 *252:40 *295:20 0.000186413
13 *259:17 *295:20 0.000737306
*RES
1 *874:gpio_dm1[37] *295:20 33.2513 
2 *295:20 gpio_dm1[37] 46.7217 
*END

*D_NET *296 0.18874
*CONN
*P gpio_dm1[38] O
*I *874:gpio_dm1[38] O *D counter_gpio_config_example
*CAP
1 gpio_dm1[38] 0.000225585
2 *874:gpio_dm1[38] 0.000186703
3 *296:13 0.0101172
4 *296:11 0.00989163
5 *296:9 0.00389297
6 *296:7 0.00407968
7 *296:9 *340:9 0.0130168
8 *296:9 *340:13 0.00311508
9 *296:9 *342:19 0.00037709
10 *296:9 *344:19 0.00826076
11 *296:9 *389:9 0.0037498
12 *296:13 gpio_slow_sel[38] 0.013933
13 *296:13 *300:13 0.0290372
14 *125:19 *296:9 0
15 *125:21 *296:13 0.0221716
16 *164:13 *296:13 0.0531061
17 *168:19 *296:9 0
18 *168:21 *296:13 0.00751469
19 *212:13 *296:13 0.00599175
20 *223:7 *296:7 3.63841e-05
21 *241:7 *296:7 3.63841e-05
*RES
1 *874:gpio_dm1[38] *296:7 3.90193 
2 *296:7 *296:9 232.054 
3 *296:9 *296:11 3.41 
4 *296:11 *296:13 85.3739 
5 *296:13 gpio_dm1[38] 7.82964 
*END

*D_NET *297 0.1426
*CONN
*P gpio_dm1[39] O
*I *874:gpio_dm1[39] O *D counter_gpio_config_example
*CAP
1 gpio_dm1[39] 0.000166703
2 *874:gpio_dm1[39] 0.000213047
3 *297:13 0.0418653
4 *297:11 0.0416986
5 *297:9 0.0291492
6 *297:7 0.0293622
7 *297:7 *381:11 3.84969e-05
8 *297:9 *381:11 0.000106049
9 *89:9 *297:9 0
10 *269:7 *297:7 0
11 *269:9 *297:9 0
*RES
1 *874:gpio_dm1[39] *297:7 0.39893 
2 *297:7 *297:9 75.5368 
3 *297:9 *297:11 3.41 
4 *297:11 *297:13 841.804 
5 *297:13 gpio_dm1[39] 3.50893 
*END

*D_NET *298 0.465882
*CONN
*P gpio_dm1[3] O
*I *874:gpio_dm1[3] O *D counter_gpio_config_example
*CAP
1 gpio_dm1[3] 0.000133284
2 *874:gpio_dm1[3] 0.076819
3 *298:22 0.125711
4 *298:20 0.125577
5 *298:18 0.0236158
6 *298:16 0.100435
7 *298:16 *375:13 0.00621352
8 *298:16 *419:11 0.000771268
9 *298:16 *429:9 0.000105439
10 *298:16 *540:17 0.0028934
11 *298:16 *664:16 2.85852e-05
12 *298:16 *665:20 0.000537436
13 *298:22 gpio_slow_sel[3] 0
14 *129:9 *298:16 3.43688e-05
15 *131:9 *298:16 0.00178781
16 *232:16 *298:16 0.000723379
17 *254:17 *298:22 0
18 *281:11 *298:16 0.000495934
*RES
1 *874:gpio_dm1[3] *298:16 22.8872 
2 *298:16 *298:18 67.0565 
3 *298:18 *298:20 3.41 
4 *298:20 *298:22 326.844 
5 *298:22 gpio_dm1[3] 0.41125 
*END

*D_NET *299 0.16983
*CONN
*P gpio_dm1[40] O
*I *874:gpio_dm1[40] O *D counter_gpio_config_example
*CAP
1 gpio_dm1[40] 8.18669e-05
2 *874:gpio_dm1[40] 0.000174451
3 *299:13 0.0385468
4 *299:11 0.0384649
5 *299:9 0.0459472
6 *299:7 0.0461217
7 *140:9 *299:9 0
8 *245:7 *299:7 3.48999e-05
9 *245:7 *299:9 1.40147e-06
10 *282:11 *299:7 3.99467e-05
11 *282:11 *299:9 0.000416733
*RES
1 *874:gpio_dm1[40] *299:7 0.556167 
2 *299:7 *299:9 118.777 
3 *299:9 *299:11 3.41 
4 *299:11 *299:13 778.054 
5 *299:13 gpio_dm1[40] 1.72321 
*END

*D_NET *300 0.426976
*CONN
*P gpio_dm1[41] O
*I *874:gpio_dm1[41] O *D counter_gpio_config_example
*CAP
1 gpio_dm1[41] 0.000213864
2 *874:gpio_dm1[41] 0.000993377
3 *300:21 0.0212694
4 *300:19 0.0211898
5 *300:13 0.00448396
6 *300:11 0.00434966
7 *300:9 0.0223493
8 *300:7 0.0233427
9 *300:7 *548:7 0.000215292
10 *300:9 *359:9 0.0113896
11 *300:9 *663:9 0.00872174
12 *300:21 *340:17 0.000263857
13 *300:21 *344:35 0.126996
14 *300:21 *433:22 0
15 *300:21 *739:9 0.0155619
16 *300:21 *828:13 0.00350627
17 *123:13 *300:13 0.000269199
18 *123:21 *300:21 0.0977143
19 *124:21 gpio_dm1[41] 0
20 *125:19 *300:13 8.73551e-05
21 *164:13 *300:13 0.000342617
22 *164:13 *300:21 0.00483717
23 *212:13 *300:13 0.0297667
24 *266:15 *300:7 7.40673e-05
25 *296:13 *300:13 0.0290372
*RES
1 *874:gpio_dm1[41] *300:7 5.84773 
2 *300:7 *300:9 545.339 
3 *300:9 *300:11 3.41 
4 *300:11 *300:13 47.6831 
5 *300:13 *300:19 9.70464 
6 *300:19 *300:21 1201.88 
7 *300:21 gpio_dm1[41] 8.29464 
*END

*D_NET *301 0.426451
*CONN
*P gpio_dm1[42] O
*I *874:gpio_dm1[42] O *D counter_gpio_config_example
*CAP
1 gpio_dm1[42] 0.000204879
2 *874:gpio_dm1[42] 0.000106052
3 *301:17 0.00756174
4 *301:15 0.00735686
5 *301:13 0.0774192
6 *301:11 0.0774192
7 *301:9 0.0155171
8 *301:7 0.0156232
9 *301:7 *552:7 2.91124e-05
10 *301:9 *340:9 0.00969574
11 *301:9 *342:19 0.000387018
12 *301:9 *344:17 0.000630289
13 *301:9 *389:9 0.00226425
14 *301:9 *404:11 0.0027555
15 *301:9 *428:11 0
16 *301:9 *560:11 0
17 *301:9 *664:18 0
18 *301:13 *302:13 0
19 *301:13 *697:9 0.161986
20 *129:9 *301:9 0.00167357
21 *132:7 *301:7 2.68037e-05
22 *135:11 *301:9 0.013783
23 *141:9 *301:9 0.0320112
*RES
1 *874:gpio_dm1[42] *301:7 3.7578 
2 *301:7 *301:9 593.911 
3 *301:9 *301:11 3.41 
4 *301:11 *301:13 298.619 
5 *301:13 *301:15 3.41 
6 *301:15 *301:17 144.804 
7 *301:17 gpio_dm1[42] 4.3125 
*END

*D_NET *302 0.478498
*CONN
*P gpio_dm1[43] O
*I *874:gpio_dm1[43] O *D counter_gpio_config_example
*CAP
1 gpio_dm1[43] 0.000120043
2 *874:gpio_dm1[43] 0.000309109
3 *302:17 0.00772477
4 *302:15 0.00760472
5 *302:13 0.0889264
6 *302:11 0.0889264
7 *302:9 0.00818984
8 *302:7 0.00849895
9 *302:7 *440:7 5.67195e-05
10 *302:9 *342:19 0.00025059
11 *302:9 *344:19 0.0310682
12 *302:9 *347:9 0.00112481
13 *302:9 *384:9 0
14 *302:9 *391:9 0.00041992
15 *302:9 *434:9 0.0378174
16 *302:9 *532:19 0.00166246
17 *302:13 *434:13 0
18 *302:13 *697:9 0
19 *302:13 *698:9 0.184536
20 *143:9 *302:9 0.0110009
21 *147:9 *302:9 0.000213997
22 *174:7 *302:7 4.71276e-05
23 *225:9 *302:9 0
24 *301:13 *302:13 0
*RES
1 *874:gpio_dm1[43] *302:7 4.11813 
2 *302:7 *302:9 527.125 
3 *302:9 *302:11 3.41 
4 *302:11 *302:13 342.22 
5 *302:13 *302:15 3.41 
6 *302:15 *302:17 150.875 
7 *302:17 gpio_dm1[43] 2.52679 
*END

*D_NET *303 0.492372
*CONN
*P gpio_dm1[4] O
*I *874:gpio_dm1[4] O *D counter_gpio_config_example
*CAP
1 gpio_dm1[4] 0.00784736
2 *874:gpio_dm1[4] 0.000159714
3 *303:13 0.0346928
4 *303:11 0.0268454
5 *303:9 0.0710408
6 *303:7 0.0712005
7 *303:7 *422:11 1.92263e-05
8 *303:9 *672:17 0.0474623
9 *303:13 *351:13 0.00157346
10 *303:13 *437:13 0
11 gpio_analog_en[4] gpio_dm1[4] 0
12 gpio_analog_pol[4] gpio_dm1[4] 0
13 *134:13 *303:13 0.00072795
14 *137:13 *303:7 7.64141e-05
15 *137:13 *303:9 0.214422
16 *210:14 *303:13 0.0160422
17 *278:11 *303:7 4.05817e-05
18 *278:11 *303:9 0.000221372
*RES
1 *874:gpio_dm1[4] *303:7 0.556167 
2 *303:7 *303:9 351.876 
3 *303:9 *303:11 3.41 
4 *303:11 *303:13 96.9923 
5 *303:13 gpio_dm1[4] 22.1716 
*END

*D_NET *304 0.498197
*CONN
*P gpio_dm1[5] O
*I *874:gpio_dm1[5] O *D counter_gpio_config_example
*CAP
1 gpio_dm1[5] 0.000188879
2 *874:gpio_dm1[5] 0.00461259
3 *304:13 0.186086
4 *304:11 0.185897
5 *304:9 0.0165493
6 *304:7 0.0211619
7 *304:9 *374:9 0.0118179
8 *304:9 *440:9 0.0487551
9 *304:9 *822:10 0
10 *107:7 *304:7 0.00097297
11 *133:7 *304:7 0.000362442
12 *178:17 *304:9 0.00270746
13 *193:9 *304:9 0.0190852
14 *206:7 *304:7 0
15 *260:13 *304:13 0
*RES
1 *874:gpio_dm1[5] *304:7 14.6399 
2 *304:7 *304:9 661.911 
3 *304:9 *304:11 3.41 
4 *304:11 *304:13 475.842 
5 *304:13 gpio_dm1[5] 0.59925 
*END

*D_NET *305 0.497941
*CONN
*P gpio_dm1[6] O
*I *874:gpio_dm1[6] O *D counter_gpio_config_example
*CAP
1 gpio_dm1[6] 0.000137346
2 *874:gpio_dm1[6] 0.00430954
3 *305:13 0.181792
4 *305:11 0.181655
5 *305:9 0.0282705
6 *305:7 0.03258
7 *305:7 *309:7 0.000412944
8 *305:7 *314:7 0.000750677
9 *305:13 gpio_slow_sel[6] 0
10 *241:9 *305:9 0.0680337
*RES
1 *874:gpio_dm1[6] *305:7 13.5589 
2 *305:7 *305:9 849.518 
3 *305:9 *305:11 3.41 
4 *305:11 *305:13 474.761 
5 *305:13 gpio_dm1[6] 0.423783 
*END

*D_NET *306 0.650404
*CONN
*P gpio_dm1[7] O
*I *874:gpio_dm1[7] O *D counter_gpio_config_example
*CAP
1 gpio_dm1[7] 0.00328749
2 *874:gpio_dm1[7] 0.00497552
3 *306:13 0.186563
4 *306:11 0.183275
5 *306:9 0.0656332
6 *306:7 0.0706087
7 *306:7 *307:7 0
8 *306:9 *382:9 0
9 *306:9 *393:9 0.0119223
10 *130:17 *306:13 0
11 *196:7 *306:7 0.00124978
12 *204:7 *306:7 0.000584929
13 *219:9 *306:9 0.122305
*RES
1 *874:gpio_dm1[7] *306:7 17.6667 
2 *306:7 *306:9 1902.3 
3 *306:9 *306:11 3.41 
4 *306:11 *306:13 472.48 
5 *306:13 gpio_dm1[7] 7.32652 
*END

*D_NET *307 0.721556
*CONN
*P gpio_dm1[8] O
*I *874:gpio_dm1[8] O *D counter_gpio_config_example
*CAP
1 gpio_dm1[8] 0.000167269
2 *874:gpio_dm1[8] 0.00676648
3 *307:21 0.179569
4 *307:19 0.179402
5 *307:17 0.0451867
6 *307:15 0.0454216
7 *307:9 0.0153527
8 *307:7 0.0218843
9 *307:7 *354:15 0.000111282
10 *307:17 *354:17 0.139046
11 *307:17 *373:9 0.0560414
12 *307:21 *791:17 0
13 *161:9 *307:9 0
14 *163:9 *307:9 0
15 *204:7 *307:7 0.000590169
16 *206:11 *307:9 0.00112918
17 *242:7 *307:15 7.16585e-05
18 *248:9 *307:9 0
19 *263:17 *307:21 0
20 *284:7 *307:7 0
21 *291:9 *307:9 0.0308163
22 *306:7 *307:7 0
*RES
1 *874:gpio_dm1[8] *307:7 20.4412 
2 *307:7 *307:9 66.2042 
3 *307:9 *307:15 7.4075 
4 *307:15 *307:17 1734.73 
5 *307:17 *307:19 3.41 
6 *307:19 *307:21 481.103 
7 *307:21 gpio_dm1[8] 0.56165 
*END

*D_NET *308 0.540696
*CONN
*P gpio_dm1[9] O
*I *874:gpio_dm1[9] O *D counter_gpio_config_example
*CAP
1 gpio_dm1[9] 3.66266e-05
2 *874:gpio_dm1[9] 0.000214015
3 *308:17 0.117685
4 *308:15 0.117648
5 *308:13 0.099927
6 *308:11 0.099927
7 *308:9 0.0198684
8 *308:7 0.0200824
9 *308:7 *388:11 3.42149e-05
10 *308:9 *388:11 0.00141505
11 *308:9 *539:9 0
12 *308:13 *363:13 0.0636815
13 *113:11 *308:7 3.0855e-05
14 *113:11 *308:9 0.000145959
15 *264:13 *308:17 0
16 *269:13 *308:13 0
*RES
1 *874:gpio_dm1[9] *308:7 0.556167 
2 *308:7 *308:9 51.0702 
3 *308:9 *308:11 3.41 
4 *308:11 *308:13 290.67 
5 *308:13 *308:15 3.41 
6 *308:15 *308:17 319.493 
7 *308:17 gpio_dm1[9] 0.122983 
*END

*D_NET *309 0.819863
*CONN
*P gpio_dm2[0] O
*I *874:gpio_dm2[0] O *D counter_gpio_config_example
*CAP
1 gpio_dm2[0] 0.00120793
2 *874:gpio_dm2[0] 0.00258083
3 *309:17 0.00335432
4 *309:15 0.00214639
5 *309:13 0.112883
6 *309:11 0.112883
7 *309:9 0.0195516
8 *309:7 0.0221325
9 gpio_dm2[0] gpio_holdover[0] 0
10 *309:7 *532:17 0.000111409
11 *309:9 *325:9 0
12 *309:9 *377:9 0.000468459
13 *309:9 *471:11 0.00188318
14 *309:13 *874:gpio_in[3] 0.00347388
15 *309:13 *342:19 5.16445e-05
16 *309:13 *342:21 0.0563158
17 *309:13 *460:21 0.000181006
18 *309:13 *461:21 0.00038319
19 *309:13 *471:15 0.0270375
20 *309:13 *482:15 0.0534629
21 *309:13 *484:15 0.0636124
22 *309:13 *683:11 0
23 *309:17 *529:17 0
24 gpio_analog_sel[0] gpio_dm2[0] 0.00211331
25 *91:9 *309:9 0.0231977
26 *93:9 *309:9 0
27 *115:9 *309:9 0.00187002
28 *123:9 *309:9 0.0039432
29 *133:9 *309:9 0
30 *133:13 *309:13 0.289319
31 *133:17 *309:17 0.00394166
32 *155:19 *309:13 0.000293637
33 *155:25 *309:17 0.00469284
34 *204:9 *309:9 0.006275
35 *271:7 *309:7 8.17034e-05
36 *305:7 *309:7 0.000412944
*RES
1 *874:gpio_dm2[0] *309:7 9.19883 
2 *309:7 *309:9 76.5379 
3 *309:9 *309:11 3.41 
4 *309:11 *309:13 466.931 
5 *309:13 *309:15 3.41 
6 *309:15 *309:17 103.946 
7 *309:17 gpio_dm2[0] 6.99062 
*END

*D_NET *310 0.808188
*CONN
*P gpio_dm2[10] O
*I *874:gpio_dm2[10] O *D counter_gpio_config_example
*CAP
1 gpio_dm2[10] 9.77417e-05
2 *874:gpio_dm2[10] 0.00461559
3 *310:17 0.0908887
4 *310:15 0.090791
5 *310:13 0.110568
6 *310:11 0.115183
7 *310:11 *408:17 0
8 *310:13 *408:13 0
9 *310:17 gpio_holdover[10] 0.000391042
10 *310:17 *354:21 0.224027
11 *310:17 *706:17 0
12 *94:13 *310:13 0.165081
13 *121:13 *310:13 0.00122659
14 *130:11 *310:11 0.00108894
15 *137:11 *310:11 2.41207e-05
16 *213:13 *310:13 0.00420534
17 *263:13 *310:13 0
18 *278:11 *310:11 0
*RES
1 *874:gpio_dm2[10] *310:11 16.2645 
2 *310:11 *310:13 418.616 
3 *310:13 *310:15 3.41 
4 *310:15 *310:17 358.265 
5 *310:17 gpio_dm2[10] 0.301583 
*END

*D_NET *311 0.987488
*CONN
*P gpio_dm2[11] O
*I *874:gpio_dm2[11] O *D counter_gpio_config_example
*CAP
1 gpio_dm2[11] 0.00305803
2 *874:gpio_dm2[11] 0.00102795
3 *311:13 0.119173
4 *311:11 0.116115
5 *311:9 0.0469549
6 *311:7 0.0479828
7 gpio_dm2[11] gpio_holdover[11] 0.000264849
8 gpio_dm2[11] *355:17 0.000406484
9 *311:7 *317:7 0.000174352
10 *311:9 *352:17 0.160761
11 *311:9 *359:9 0.00434866
12 *311:9 *663:9 0.201054
13 *311:13 *355:17 0
14 *115:7 *311:7 0.000175956
15 *179:21 gpio_dm2[11] 0
16 *179:21 *311:13 0.285992
*RES
1 *874:gpio_dm2[11] *311:7 5.84773 
2 *311:7 *311:9 2510.05 
3 *311:9 *311:11 3.41 
4 *311:11 *311:13 460.661 
5 *311:13 gpio_dm2[11] 7.41112 
*END

*D_NET *312 0.684194
*CONN
*P gpio_dm2[12] O
*I *874:gpio_dm2[12] O *D counter_gpio_config_example
*CAP
1 gpio_dm2[12] 0.00257799
2 *874:gpio_dm2[12] 0.000142277
3 *312:17 0.0643494
4 *312:15 0.0617714
5 *312:13 0.154482
6 *312:11 0.154482
7 *312:9 0.0364961
8 *312:7 0.0366384
9 gpio_dm2[12] gpio_holdover[12] 0
10 *312:7 *376:11 5.41024e-05
11 *312:7 *436:11 4.72078e-05
12 *312:9 *376:11 0.00069992
13 *312:9 *436:11 0.00266925
14 *312:9 *683:17 0.0189422
15 *312:13 *394:13 0
16 *312:17 gpio_holdover[12] 0
17 *175:9 *312:9 0
18 *180:13 gpio_dm2[12] 0.00193339
19 *180:13 *312:17 0.148908
*RES
1 *874:gpio_dm2[12] *312:7 0.556167 
2 *312:7 *312:9 124.578 
3 *312:9 *312:11 3.41 
4 *312:11 *312:13 452.707 
5 *312:13 *312:15 3.41 
6 *312:15 *312:17 239.597 
7 *312:17 gpio_dm2[12] 6.97245 
*END

*D_NET *313 0.613683
*CONN
*P gpio_dm2[13] O
*I *874:gpio_dm2[13] O *D counter_gpio_config_example
*CAP
1 gpio_dm2[13] 0.0108597
2 *874:gpio_dm2[13] 0.000205333
3 *313:20 1.65018e-05
4 *313:13 0.17233
5 *313:11 0.161487
6 *313:9 0.120618
7 *313:7 0.120823
8 gpio_dm2[13] gpio_holdover[13] 0.000971411
9 gpio_dm2[13] gpio_out[13] 0
10 gpio_dm2[13] *357:25 0.0224559
11 *313:7 *427:11 3.58177e-05
12 *313:9 *427:11 2.82711e-05
13 *313:9 *531:11 0
14 *313:9 *533:19 0
15 *313:13 *711:21 0
16 *267:11 *313:7 3.42149e-05
17 *267:11 *313:9 0.00381857
*RES
1 *874:gpio_dm2[13] *313:7 0.556167 
2 *313:7 *313:9 331.121 
3 *313:9 *313:11 3.41 
4 *313:11 *313:13 475.612 
5 *313:13 gpio_dm2[13] 42.8524 
6 gpio_dm2[13] *313:20 0.0509167 
*END

*D_NET *314 1.11847
*CONN
*P gpio_dm2[14] O
*I *874:gpio_dm2[14] O *D counter_gpio_config_example
*CAP
1 gpio_dm2[14] 0.00149542
2 *874:gpio_dm2[14] 0.00496976
3 *314:13 0.137623
4 *314:11 0.136127
5 *314:9 0.106776
6 *314:7 0.111746
7 gpio_dm2[14] *358:17 0.0002641
8 *314:7 *373:7 0.000920857
9 *314:9 *469:11 0
10 *314:13 *545:30 0.0192066
11 gpio_analog_sel[24] *314:13 0
12 *149:25 *314:13 0
13 *182:17 gpio_dm2[14] 0.000391042
14 *182:17 *314:13 0.20792
15 *191:9 *314:9 0.281963
16 *193:17 *314:9 0.0366519
17 *196:9 *314:9 0.0542331
18 *247:9 *314:9 0.0174318
19 *305:7 *314:7 0.000750677
*RES
1 *874:gpio_dm2[14] *314:7 15.6488 
2 *314:7 *314:9 3471.16 
3 *314:9 *314:11 3.41 
4 *314:11 *314:13 473.669 
5 *314:13 gpio_dm2[14] 13.5676 
*END

*D_NET *315 0.577962
*CONN
*P gpio_dm2[15] O
*I *874:gpio_dm2[15] O *D counter_gpio_config_example
*CAP
1 gpio_dm2[15] 0.00428004
2 *874:gpio_dm2[15] 0.000178076
3 *315:13 0.168254
4 *315:11 0.163974
5 *315:9 0.115846
6 *315:7 0.116024
7 gpio_dm2[15] gpio_holdover[15] 0
8 gpio_dm2[15] *359:17 0
9 *315:7 *341:7 4.1194e-05
10 *315:9 gpio_slow_sel[3] 0
11 *315:9 *319:9 0
12 *315:9 *341:7 5.66041e-06
13 *315:9 *341:9 0.00887833
14 *315:9 *474:7 0
15 gpio_analog_sel[15] gpio_dm2[15] 0
16 *203:11 *315:7 5.00587e-05
17 *203:11 *315:9 0.00042979
*RES
1 *874:gpio_dm2[15] *315:7 0.39893 
2 *315:7 *315:9 326.833 
3 *315:9 *315:11 3.41 
4 *315:11 *315:13 3372.2 
5 *315:13 gpio_dm2[15] 30.9646 
*END

*D_NET *316 0.936519
*CONN
*P gpio_dm2[16] O
*I *874:gpio_dm2[16] O *D counter_gpio_config_example
*CAP
1 gpio_dm2[16] 0.000998525
2 *874:gpio_dm2[16] 0.00224487
3 *316:15 0.066055
4 *316:13 0.0650565
5 *316:11 0.111368
6 *316:9 0.113613
7 gpio_dm2[16] gpio_holdover[16] 0
8 *316:9 *350:13 0.00172845
9 *316:9 *379:11 0
10 *316:9 *402:7 0
11 *316:11 *369:9 0.275067
12 *316:15 *361:13 0.0418372
13 gpio_analog_sel[16] gpio_dm2[16] 0
14 *96:13 *316:15 0.213931
15 *99:9 *316:11 0
16 *105:17 *316:11 0.0180202
17 *184:21 *316:15 0
18 *244:9 *316:11 0.0266
*RES
1 *874:gpio_dm2[16] *316:9 8.66773 
2 *316:9 *316:11 3534.15 
3 *316:11 *316:13 4.5 
4 *316:13 *316:15 2024.95 
5 *316:15 gpio_dm2[16] 24.75 
*END

*D_NET *317 0.660206
*CONN
*P gpio_dm2[17] O
*I *874:gpio_dm2[17] O *D counter_gpio_config_example
*CAP
1 gpio_dm2[17] 0.156892
2 *874:gpio_dm2[17] 0.0012456
3 *317:15 0.156892
4 *317:13 0.117267
5 *317:11 0.117267
6 *317:9 0.00806819
7 *317:7 0.0093138
8 gpio_dm2[17] gpio_holdover[17] 0
9 *317:7 *322:7 0.000203592
10 *317:9 *322:9 0.0428016
11 *317:9 *323:9 0.00282929
12 *317:9 *350:15 0.0070958
13 *317:9 *352:9 0.000333729
14 *317:9 *535:9 0.0393198
15 *317:13 *688:19 0.000503805
16 gpio_analog_sel[17] gpio_dm2[17] 0
17 *115:7 *317:7 0
18 *311:7 *317:7 0.000174352
*RES
1 *874:gpio_dm2[17] *317:7 6.28013 
2 *317:7 *317:9 549.589 
3 *317:9 *317:11 3.41 
4 *317:11 *317:13 312.816 
5 *317:13 *317:15 3.41 
6 *317:15 gpio_dm2[17] 3107.42 
*END

*D_NET *318 0.445945
*CONN
*P gpio_dm2[18] O
*I *874:gpio_dm2[18] O *D counter_gpio_config_example
*CAP
1 gpio_dm2[18] 0.00355216
2 *874:gpio_dm2[18] 0.000167605
3 *318:13 0.17115
4 *318:11 0.167598
5 *318:9 0.0514857
6 *318:7 0.0516533
7 gpio_dm2[18] gpio_holdover[18] 0
8 gpio_dm2[18] gpio_out[18] 0
9 *318:7 *556:11 4.87987e-05
10 *318:9 *372:11 0
11 *318:9 *556:11 0.000114756
12 gpio_analog_sel[18] gpio_dm2[18] 0
13 *98:11 *318:9 0
14 *274:13 gpio_dm2[18] 0
15 *290:11 *318:7 4.31383e-05
16 *290:11 *318:9 0.000132329
*RES
1 *874:gpio_dm2[18] *318:7 0.556167 
2 *318:7 *318:9 138.739 
3 *318:9 *318:11 3.41 
4 *318:11 *318:13 3442.02 
5 *318:13 gpio_dm2[18] 28.9238 
*END

*D_NET *319 0.40893
*CONN
*P gpio_dm2[19] O
*I *874:gpio_dm2[19] O *D counter_gpio_config_example
*CAP
1 gpio_dm2[19] 0.00381685
2 *874:gpio_dm2[19] 0.000263238
3 *319:13 0.168094
4 *319:11 0.164277
5 *319:9 0.0146406
6 *319:7 0.0149038
7 gpio_dm2[19] gpio_holdover[19] 0
8 *319:9 *474:7 0.0338574
9 gpio_analog_sel[19] gpio_dm2[19] 0
10 gpio_dm1[19] gpio_dm2[19] 0
11 gpio_dm1[36] *319:9 0.000889483
12 *183:21 gpio_dm2[19] 0.000465282
13 *184:21 gpio_dm2[19] 0.000622595
14 *203:11 *319:7 3.64239e-05
15 *203:11 *319:9 0.000432065
16 *254:15 *319:7 4.68544e-05
17 *254:15 *319:9 0
18 *272:21 gpio_dm2[19] 0.000477637
19 *274:13 gpio_dm2[19] 0.0061066
20 *315:9 *319:9 0
*RES
1 *874:gpio_dm2[19] *319:7 0.6627 
2 *319:7 *319:9 56.5833 
3 *319:9 *319:11 3.41 
4 *319:11 *319:13 3372.8 
5 *319:13 gpio_dm2[19] 36.1591 
*END

*D_NET *320 0.431603
*CONN
*P gpio_dm2[1] O
*I *874:gpio_dm2[1] O *D counter_gpio_config_example
*CAP
1 gpio_dm2[1] 0.00106972
2 *874:gpio_dm2[1] 0.000178076
3 *320:17 0.0727464
4 *320:15 0.0716767
5 *320:13 0.0242745
6 *320:11 0.0242745
7 *320:9 0.0178951
8 *320:7 0.0180732
9 gpio_dm2[1] *364:17 0.00194238
10 *320:17 *364:17 0.172333
11 *320:17 *429:9 0.00209786
12 *320:17 *716:27 0
13 gpio_analog_sel[1] gpio_dm2[1] 0.000395099
14 *131:9 *320:17 0
15 *155:25 gpio_dm2[1] 0
16 *218:7 *320:7 4.1194e-05
17 *218:7 *320:9 5.66041e-06
18 *218:9 *320:9 0.00698951
19 *222:9 *320:17 0.0105704
20 *226:7 *320:7 3.17015e-05
21 *226:9 *320:7 1.83572e-05
22 *226:9 *320:9 0.00698951
*RES
1 *874:gpio_dm2[1] *320:7 0.39893 
2 *320:7 *320:9 64.0422 
3 *320:9 *320:11 3.41 
4 *320:11 *320:13 68.761 
5 *320:13 *320:15 3.41 
6 *320:15 *320:17 303.34 
7 *320:17 gpio_dm2[1] 11.6537 
*END

*D_NET *321 0.33387
*CONN
*P gpio_dm2[20] O
*I *874:gpio_dm2[20] O *D counter_gpio_config_example
*CAP
1 gpio_dm2[20] 8.42969e-05
2 *874:gpio_dm2[20] 0.0110338
3 *321:13 0.155772
4 *321:11 0.166722
5 gpio_dm2[20] gpio_holdover[20] 0
6 *321:11 *338:11 7.517e-05
7 *321:11 *380:11 0.000182555
8 *321:11 *410:13 0
9 *321:13 gpio_holdover[20] 0
10 *321:13 *567:27 0
11 gpio_analog_sel[20] gpio_dm2[20] 0
12 gpio_analog_sel[20] *321:13 0
13 *134:9 *321:11 0
*RES
1 *874:gpio_dm2[20] *321:11 29.9419 
2 *321:11 *321:13 3200.38 
3 *321:13 gpio_dm2[20] 1.60714 
*END

*D_NET *322 0.539148
*CONN
*P gpio_dm2[21] O
*I *874:gpio_dm2[21] O *D counter_gpio_config_example
*CAP
1 gpio_dm2[21] 8.83825e-05
2 *874:gpio_dm2[21] 0.00135933
3 *322:17 0.158118
4 *322:15 0.158029
5 *322:13 0.0173085
6 *322:11 0.0173085
7 *322:9 0.00831136
8 *322:7 0.00967068
9 gpio_dm2[21] gpio_holdover[21] 0
10 *322:9 *350:15 0.00623925
11 *322:9 *352:9 0.000936918
12 *322:9 *542:9 0.0403929
13 *322:9 *666:17 0
14 *322:13 *360:13 0
15 *322:13 *543:17 0.0233353
16 *322:13 *665:28 0.00404419
17 *322:17 gpio_holdover[21] 0
18 gpio_analog_sel[21] gpio_dm2[21] 0
19 *190:33 *322:17 0
20 *247:7 *322:7 0
21 *290:17 *322:13 0.0510012
22 *317:7 *322:7 0.000203592
23 *317:9 *322:9 0.0428016
*RES
1 *874:gpio_dm2[21] *322:7 6.3522 
2 *322:7 *322:9 528.946 
3 *322:9 *322:11 3.41 
4 *322:11 *322:13 82.7795 
5 *322:13 *322:15 3.41 
6 *322:15 *322:17 3123.88 
7 *322:17 gpio_dm2[21] 1.60714 
*END

*D_NET *323 0.475468
*CONN
*P gpio_dm2[22] O
*I *874:gpio_dm2[22] O *D counter_gpio_config_example
*CAP
1 gpio_dm2[22] 0.152784
2 *874:gpio_dm2[22] 0.00105467
3 *323:15 0.1646
4 *323:9 0.0212115
5 *323:7 0.01045
6 gpio_dm2[22] gpio_holdover[22] 0
7 *323:7 *344:17 0.000166525
8 *323:7 *538:7 0.000201044
9 *323:9 *324:9 0.0473048
10 *323:9 *350:15 0.00549247
11 *323:9 *352:9 0.000574623
12 *323:9 *535:9 0.0370143
13 *323:9 *666:17 0
14 *323:15 *542:21 0.00109236
15 *323:15 *553:18 0
16 *323:15 *781:15 0.00128468
17 gpio_analog_sel[22] gpio_dm2[22] 0
18 *104:27 *323:15 0.00275264
19 *142:13 *323:15 0
20 *147:23 *323:15 0.025384
21 *179:15 *323:7 0.000188546
22 *233:19 *323:15 3.79901e-06
23 *233:21 *323:15 0.000684018
24 *271:19 *323:15 0.000269836
25 *271:21 *323:15 0.000124728
26 *317:9 *323:9 0.00282929
*RES
1 *874:gpio_dm2[22] *323:7 6.136 
2 *323:7 *323:9 584.804 
3 *323:9 *323:15 49.0981 
4 *323:15 gpio_dm2[22] 3135.96 
*END

*D_NET *324 0.524643
*CONN
*P gpio_dm2[23] O
*I *874:gpio_dm2[23] O *D counter_gpio_config_example
*CAP
1 gpio_dm2[23] 0.00220534
2 *874:gpio_dm2[23] 0.00107166
3 *324:17 0.112545
4 *324:15 0.111046
5 *324:9 0.0103707
6 *324:7 0.010736
7 gpio_dm2[23] gpio_holdover[23] 0
8 *324:7 *538:7 0.000197245
9 *324:9 *359:9 0.0502685
10 *324:9 *535:9 0.0017092
11 *324:15 *406:13 0.000246973
12 *324:15 *537:13 0.000167289
13 *324:17 *368:65 0
14 *324:17 *532:19 0.173679
15 gpio_analog_sel[23] gpio_dm2[23] 0
16 *122:15 *324:7 0.000197245
17 *129:9 *324:17 0.00289776
18 *135:11 *324:17 0
19 *139:9 *324:17 0
20 *192:17 *324:17 0
21 *225:9 *324:17 0
22 *266:17 *324:17 0
23 *323:9 *324:9 0.0473048
*RES
1 *874:gpio_dm2[23] *324:7 6.06393 
2 *324:7 *324:9 629.125 
3 *324:9 *324:15 8.74073 
4 *324:15 *324:17 3055.93 
5 *324:17 gpio_dm2[23] 42.9732 
*END

*D_NET *325 0.668037
*CONN
*P gpio_dm2[24] O
*I *874:gpio_dm2[24] O *D counter_gpio_config_example
*CAP
1 gpio_dm2[24] 0.0101585
2 *874:gpio_dm2[24] 0.00263012
3 *325:9 0.19578
4 *325:7 0.188252
5 gpio_dm2[24] gpio_holdover[24] 0.000178417
6 *325:9 *470:11 0.001323
7 *325:9 *821:13 0.0108782
8 gpio_analog_sel[24] gpio_dm2[24] 0
9 *95:9 *325:9 0.020253
10 *96:9 *325:9 0.00991764
11 *99:7 *325:7 0.000448921
12 *151:9 *325:9 0.0393087
13 *197:9 *325:9 0.163157
14 *204:9 *325:9 0
15 *249:9 *325:9 0.0115904
16 *274:9 *325:9 0.00991764
17 *279:7 *325:7 0.000584252
18 *283:17 *325:9 0.00365934
19 *309:9 *325:9 0
*RES
1 *874:gpio_dm2[24] *325:7 10.6402 
2 *325:7 *325:9 657.038 
3 *325:9 gpio_dm2[24] 28.4853 
*END

*D_NET *326 0.563977
*CONN
*P gpio_dm2[25] O
*I *874:gpio_dm2[25] O *D counter_gpio_config_example
*CAP
1 gpio_dm2[25] 0.00246946
2 *874:gpio_dm2[25] 0.00317951
3 *326:25 0.0484755
4 *326:23 0.0460061
5 *326:21 0.102284
6 *326:19 0.102334
7 *326:13 0.0038583
8 *326:11 0.0069877
9 gpio_dm2[25] gpio_holdover[25] 0.000244817
10 *326:11 *334:11 0.000116823
11 *326:13 *446:11 0
12 *326:13 *544:13 0.00956187
13 *326:21 *415:13 0
14 *326:21 *444:11 0.00562156
15 *326:21 *446:11 0.00629528
16 *326:21 *531:13 0
17 *326:21 *533:21 0.0836086
18 *326:21 *544:13 0.000176806
19 gpio_analog_sel[25] gpio_dm2[25] 0.000465675
20 gpio_analog_sel[25] *326:25 0.00328653
21 *109:13 *326:13 0.00138442
22 *109:13 *326:21 0.137571
23 *149:21 *326:21 0
24 *156:11 *326:11 0
25 *176:13 *326:19 8.57736e-06
26 *195:7 *326:11 3.55467e-05
27 *211:11 *326:11 0
28 *281:21 *326:21 0
29 *286:19 *326:19 4.37712e-06
*RES
1 *874:gpio_dm2[25] *326:11 10.3911 
2 *326:11 *326:13 118.518 
3 *326:13 *326:19 6.90303 
4 *326:19 *326:21 391.45 
5 *326:21 *326:23 3.41 
6 *326:23 *326:25 126.596 
7 *326:25 gpio_dm2[25] 6.09042 
*END

*D_NET *327 0.550223
*CONN
*P gpio_dm2[26] O
*I *874:gpio_dm2[26] O *D counter_gpio_config_example
*CAP
1 gpio_dm2[26] 0.00368178
2 *874:gpio_dm2[26] 0.00766041
3 *327:9 0.139769
4 *327:7 0.143748
5 gpio_dm2[26] gpio_holdover[26] 0.000221883
6 *327:7 *374:7 0.00103244
7 *327:9 *459:11 0.0777939
8 *327:9 *538:9 0.00641129
9 gpio_analog_sel[26] gpio_dm2[26] 0.000492821
10 *178:15 *327:7 0
11 *184:7 *327:7 0.000896926
12 *195:13 gpio_dm2[26] 0.00538863
13 *198:9 *327:9 0.163126
14 *202:9 *327:9 0
15 *285:9 *327:9 0
*RES
1 *874:gpio_dm2[26] *327:7 23.468 
2 *327:7 *327:9 462.402 
3 *327:9 gpio_dm2[26] 15.1185 
*END

*D_NET *328 0.577345
*CONN
*P gpio_dm2[27] O
*I *874:gpio_dm2[27] O *D counter_gpio_config_example
*CAP
1 gpio_dm2[27] 0.00569918
2 *874:gpio_dm2[27] 0.00517258
3 *328:9 0.0638065
4 *328:7 0.06328
5 gpio_dm2[27] gpio_holdover[27] 0
6 *328:7 *383:7 0
7 gpio_analog_sel[27] gpio_dm2[27] 0.0116119
8 *129:7 *328:7 3.78511e-05
9 *150:9 *328:9 0.216326
10 *155:7 *328:7 0.000126087
11 *162:9 *328:9 0
12 *193:17 *328:9 2.69599e-06
13 *196:9 *328:9 0.211282
14 *284:9 *328:9 0
15 *291:7 *328:7 0
*RES
1 *874:gpio_dm2[27] *328:7 15.9731 
2 *328:7 *328:9 462.934 
3 *328:9 gpio_dm2[27] 22.4897 
*END

*D_NET *329 0.351768
*CONN
*P gpio_dm2[28] O
*I *874:gpio_dm2[28] O *D counter_gpio_config_example
*CAP
1 gpio_dm2[28] 0.00800812
2 *874:gpio_dm2[28] 0.00396723
3 *329:17 0.0523978
4 *329:15 0.0444839
5 *329:9 0.0296547
6 *329:7 0.0335277
7 gpio_dm2[28] gpio_holdover[28] 0.00783156
8 gpio_dm2[28] *725:25 0
9 *329:7 *412:7 0
10 *329:15 gpio_ib_mode_sel[31] 5.64774e-06
11 gpio_analog_sel[28] gpio_dm2[28] 0
12 *101:9 *329:9 0.112203
13 *118:18 *329:7 0.000115959
14 *190:7 *329:7 4.82399e-05
15 *217:7 *329:7 0.000740075
16 *217:9 *329:9 0.0586472
17 *259:17 *329:9 0.0001365
*RES
1 *874:gpio_dm2[28] *329:7 12.3337 
2 *329:7 *329:9 1381.38 
3 *329:9 *329:15 7.04717 
4 *329:15 *329:17 103.384 
5 *329:17 gpio_dm2[28] 35.0678 
*END

*D_NET *330 0.324581
*CONN
*P gpio_dm2[29] O
*I *874:gpio_dm2[29] O *D counter_gpio_config_example
*CAP
1 gpio_dm2[29] 0.00213391
2 *874:gpio_dm2[29] 0.00200766
3 *330:33 0.0501859
4 *330:31 0.0518526
5 *330:21 0.0595578
6 *330:19 0.0560563
7 *330:13 0.0130721
8 *330:11 0.0147806
9 gpio_dm2[29] gpio_holdover[29] 0.000652243
10 *330:11 *331:7 3.92996e-05
11 *330:11 *331:9 0.000345336
12 *330:13 *372:13 0.00460398
13 *330:21 *415:13 0.000118311
14 *330:33 gpio_holdover[29] 8.36199e-06
15 gpio_analog_sel[29] gpio_dm2[29] 0.000657891
16 gpio_analog_sel[29] *330:33 0.000509367
17 *103:13 *330:13 0.00555354
18 *106:13 *330:13 0.0130973
19 *106:19 *330:31 0.00039347
20 *106:21 *330:31 6.02614e-05
21 *134:7 *330:11 4.26595e-05
22 *134:9 *330:11 0.000341976
23 *149:21 *330:21 0.0386907
24 *149:21 *330:31 0.00092209
25 *203:17 *330:19 0
26 *238:13 *330:13 6.86198e-05
27 *240:13 *330:13 3.30532e-05
28 *246:37 *330:21 0.0086839
29 *246:51 *330:21 0.000111282
*RES
1 *874:gpio_dm2[29] *330:11 8.30113 
2 *330:11 *330:13 377.768 
3 *330:13 *330:19 7.47957 
4 *330:19 *330:21 194.677 
5 *330:21 *330:31 13.2863 
6 *330:31 *330:33 121.119 
7 *330:33 gpio_dm2[29] 5.92122 
*END

*D_NET *331 0.34005
*CONN
*P gpio_dm2[2] O
*I *874:gpio_dm2[2] O *D counter_gpio_config_example
*CAP
1 gpio_dm2[2] 0.00528364
2 *874:gpio_dm2[2] 0.000197866
3 *331:13 0.0148763
4 *331:11 0.00959262
5 *331:9 0.131964
6 *331:7 0.132162
7 gpio_dm2[2] gpio_holdover[2] 0.00194068
8 gpio_dm2[2] gpio_out[2] 0.000327625
9 gpio_dm2[2] *342:25 0
10 gpio_dm2[2] *375:19 0
11 gpio_dm2[2] *833:13 0
12 *331:7 *367:15 4.26595e-05
13 *331:9 *346:17 0
14 *331:9 *367:15 0.000277454
15 *331:9 *423:11 0
16 *331:13 gpio_holdover[3] 0.0138572
17 *92:13 *331:13 0.0269213
18 *134:9 *331:9 0
19 *261:13 *331:13 0.002221
20 *330:11 *331:7 3.92996e-05
21 *330:11 *331:9 0.000345336
*RES
1 *874:gpio_dm2[2] *331:7 0.556167 
2 *331:7 *331:9 358.218 
3 *331:9 *331:11 3.41 
4 *331:11 *331:13 57.575 
5 *331:13 gpio_dm2[2] 27.6695 
*END

*D_NET *332 0.266082
*CONN
*P gpio_dm2[30] O
*I *874:gpio_dm2[30] O *D counter_gpio_config_example
*CAP
1 gpio_dm2[30] 0.0032355
2 *874:gpio_dm2[30] 0.0085077
3 *332:17 0.0599489
4 *332:15 0.0570209
5 *332:9 0.0608243
6 *332:7 0.0690245
7 gpio_dm2[30] gpio_holdover[30] 0
8 *332:9 *459:11 0
9 *332:9 *461:11 0
10 *332:15 gpio_inp_dis[32] 0.000114731
11 *332:17 gpio_inp_dis[32] 6.72288e-05
12 gpio_analog_sel[30] gpio_dm2[30] 0.00167853
13 *139:7 *332:7 3.96016e-05
14 *158:15 *332:15 0.000568292
15 *200:17 gpio_dm2[30] 0.00433715
16 *259:15 *332:7 0.00071486
*RES
1 *874:gpio_dm2[30] *332:7 24.1527 
2 *332:7 *332:9 1195.59 
3 *332:9 *332:15 7.76783 
4 *332:15 *332:17 131.935 
5 *332:17 gpio_dm2[30] 13.403 
*END

*D_NET *333 0.285798
*CONN
*P gpio_dm2[31] O
*I *874:gpio_dm2[31] O *D counter_gpio_config_example
*CAP
1 gpio_dm2[31] 0.00728104
2 *874:gpio_dm2[31] 0.00457345
3 *333:9 0.0615213
4 *333:7 0.0588137
5 gpio_dm2[31] gpio_holdover[31] 0.0100541
6 *333:7 *395:7 0.000923051
7 *333:9 *374:9 0.011922
8 *333:9 *418:9 0.125062
9 gpio_analog_sel[31] gpio_dm2[31] 0
10 *162:9 *333:9 0.00560165
11 *241:17 gpio_dm2[31] 4.54975e-05
*RES
1 *874:gpio_dm2[31] *333:7 14.0994 
2 *333:7 *333:9 267.659 
3 *333:9 gpio_dm2[31] 25.0888 
*END

*D_NET *334 0.227996
*CONN
*P gpio_dm2[32] O
*I *874:gpio_dm2[32] O *D counter_gpio_config_example
*CAP
1 gpio_dm2[32] 0.000115945
2 *874:gpio_dm2[32] 0.000668806
3 *334:17 0.0499069
4 *334:15 0.049791
5 *334:13 0.0245442
6 *334:11 0.025213
7 *334:13 *335:13 0.00355833
8 *334:13 *337:13 0.000741631
9 *334:13 *368:57 0.000160744
10 *334:13 *378:19 0.000373541
11 *334:13 *378:21 0.0496226
12 *334:13 *549:13 0.000111243
13 *334:13 *556:13 0.0202365
14 *334:17 gpio_holdover[32] 0.00159143
15 *334:17 *378:25 0
16 gpio_analog_sel[32] *334:17 0.00109495
17 *156:11 *334:11 0.000148356
18 *326:11 *334:11 0.000116823
*RES
1 *874:gpio_dm2[32] *334:11 5.16623 
2 *334:11 *334:13 109.989 
3 *334:13 *334:15 3.41 
4 *334:15 *334:17 126.789 
5 *334:17 gpio_dm2[32] 0.389317 
*END

*D_NET *335 0.276998
*CONN
*P gpio_dm2[33] O
*I *874:gpio_dm2[33] O *D counter_gpio_config_example
*CAP
1 gpio_dm2[33] 0.000445307
2 *874:gpio_dm2[33] 0.000578957
3 *335:17 0.0428594
4 *335:15 0.0424141
5 *335:13 0.0178452
6 *335:11 0.0184242
7 gpio_dm2[33] gpio_holdover[33] 0
8 gpio_dm2[33] *726:21 0.000723592
9 *335:11 *403:7 3.05438e-05
10 *335:11 *403:9 0.000104582
11 *335:13 *337:13 0.0386372
12 *335:13 *368:13 0.000106304
13 *335:13 *378:13 0.0010283
14 *335:13 *422:13 0.0683857
15 *335:13 *463:11 0.00210451
16 *335:13 *556:13 0.000333729
17 *335:17 gpio_holdover[33] 0.0013988
18 *335:17 *708:9 0.037231
19 gpio_analog_sel[33] gpio_dm2[33] 0.000202297
20 *200:11 *335:11 4.74967e-05
21 *270:9 *335:11 0
22 *290:13 *335:13 0.000539036
23 *334:13 *335:13 0.00355833
*RES
1 *874:gpio_dm2[33] *335:11 5.20227 
2 *335:11 *335:13 848.911 
3 *335:13 *335:15 3.41 
4 *335:15 *335:17 126.452 
5 *335:17 gpio_dm2[33] 16.319 
*END

*D_NET *336 0.123192
*CONN
*P gpio_dm2[34] O
*I *874:gpio_dm2[34] O *D counter_gpio_config_example
*CAP
1 gpio_dm2[34] 0.00519415
2 *874:gpio_dm2[34] 0.00761051
3 *336:9 0.0192449
4 *336:7 0.0216613
5 gpio_dm2[34] *380:17 0.00164478
6 *336:7 *361:7 0
7 *336:7 *413:7 0.001539
8 *336:9 *361:9 0.00876457
9 *336:9 *365:9 0.005325
10 *336:9 *413:17 0.00740514
11 gpio_analog_sel[34] gpio_dm2[34] 0
12 *157:17 *336:9 0.00596345
13 *159:9 *336:9 0.0381552
14 *260:7 *336:7 0.000683907
15 *289:9 *336:9 0
*RES
1 *874:gpio_dm2[34] *336:7 22.1708 
2 *336:7 *336:9 81.7581 
3 *336:9 gpio_dm2[34] 16.5473 
*END

*D_NET *337 0.290729
*CONN
*P gpio_dm2[35] O
*I *874:gpio_dm2[35] O *D counter_gpio_config_example
*CAP
1 gpio_dm2[35] 0.000376552
2 *874:gpio_dm2[35] 0.000713601
3 *337:21 0.00168853
4 *337:19 0.00131198
5 *337:17 0.0192605
6 *337:15 0.0192605
7 *337:13 0.0108456
8 *337:11 0.0115592
9 gpio_dm2[35] gpio_holdover[35] 0
10 *337:13 *463:11 0.00136231
11 *337:13 *557:13 0
12 *337:17 *338:17 3.50637e-05
13 *337:17 *557:17 0.0782315
14 *337:17 *829:16 0.00146125
15 *337:21 *381:21 0.0061287
16 *337:21 *557:21 0.00501255
17 *337:21 *726:21 0.000382976
18 gpio_analog_sel[35] gpio_dm2[35] 0.000215922
19 *103:11 *337:11 0
20 *170:11 *337:11 0.000134747
21 *215:33 *337:17 0.00190909
22 *290:13 *337:13 0.0134252
23 *293:17 *337:17 0.0780341
24 *334:13 *337:13 0.000741631
25 *335:13 *337:13 0.0386372
*RES
1 *874:gpio_dm2[35] *337:11 5.27433 
2 *337:11 *337:13 480.982 
3 *337:13 *337:15 3.41 
4 *337:15 *337:17 126.236 
5 *337:17 *337:19 3.41 
6 *337:19 *337:21 76.625 
7 *337:21 gpio_dm2[35] 4.51528 
*END

*D_NET *338 0.266486
*CONN
*P gpio_dm2[36] O
*I *874:gpio_dm2[36] O *D counter_gpio_config_example
*CAP
1 gpio_dm2[36] 0.000270151
2 *874:gpio_dm2[36] 0.00044638
3 *338:21 0.00770192
4 *338:19 0.00743177
5 *338:17 0.0206041
6 *338:15 0.0206041
7 *338:13 0.002125
8 *338:11 0.00257138
9 gpio_dm2[36] gpio_holdover[36] 7.8134e-05
10 *338:13 *427:13 0.0047847
11 *338:13 *546:13 0
12 *338:17 *347:21 0.00895906
13 *338:17 *381:17 5.99199e-06
14 *338:17 *427:17 0.0775607
15 *338:17 *829:16 0.00142305
16 *338:21 *381:21 0.000149197
17 *338:21 *425:21 0.00734466
18 *338:21 *427:21 0.0218364
19 *338:21 *726:21 0
20 gpio_analog_sel[36] gpio_dm2[36] 0.000526052
21 *117:17 *338:17 2.24813e-05
22 *134:7 *338:11 3.58177e-05
23 *134:9 *338:11 3.4869e-05
24 *160:17 *338:13 0.000205661
25 *215:33 *338:17 0.00409299
26 *293:17 *338:17 0.0775609
27 *321:11 *338:11 7.517e-05
28 *337:17 *338:17 3.50637e-05
*RES
1 *874:gpio_dm2[36] *338:11 4.4816 
2 *338:11 *338:13 60.2321 
3 *338:13 *338:15 3.41 
4 *338:15 *338:17 125.227 
5 *338:17 *338:19 3.41 
6 *338:19 *338:21 272.732 
7 *338:21 gpio_dm2[36] 4.33433 
*END

*D_NET *339 0.158114
*CONN
*P gpio_dm2[37] O
*I *874:gpio_dm2[37] O *D counter_gpio_config_example
*CAP
1 gpio_dm2[37] 0.000336266
2 *874:gpio_dm2[37] 0.072146
3 *339:35 0.00272742
4 *339:33 0.0745372
5 gpio_dm2[37] gpio_holdover[37] 7.2778e-05
6 *339:33 *554:7 0.000487057
7 *339:35 gpio_vtrip_sel[37] 0
8 *339:35 *427:21 0
9 *339:35 *726:21 0.00574732
10 *160:15 *339:33 2.85934e-05
11 *256:7 *339:33 4.72078e-05
12 *256:9 *339:33 5.12403e-05
13 *262:7 *339:33 5.53365e-05
14 *262:9 *339:33 3.94159e-05
15 *295:20 *339:33 0.00183809
*RES
1 *874:gpio_dm2[37] *339:33 36.9326 
2 *339:33 *339:35 71.7679 
3 *339:35 gpio_dm2[37] 4.33825 
*END

*D_NET *340 0.170623
*CONN
*P gpio_dm2[38] O
*I *874:gpio_dm2[38] O *D counter_gpio_config_example
*CAP
1 gpio_dm2[38] 0.000246999
2 *874:gpio_dm2[38] 0.000136442
3 *340:17 0.0140362
4 *340:15 0.0137892
5 *340:13 0.00232283
6 *340:11 0.00234904
7 *340:9 0.00405067
8 *340:7 0.0041609
9 gpio_dm2[38] *384:21 0
10 *340:7 *404:9 0.000129672
11 *340:7 *569:17 4.10321e-05
12 *340:9 *342:19 0.000407939
13 *340:9 *389:9 0.00133333
14 *340:9 *560:11 0
15 *340:9 *563:11 0
16 *340:13 *563:11 0
17 *340:17 *344:33 0.0116215
18 *340:17 *344:35 0.000284522
19 *340:17 *739:9 0.0241842
20 *340:17 *828:11 0.000435887
21 *340:17 *828:13 0.00534847
22 *123:21 *340:17 0.0047497
23 *162:7 *340:7 0
24 *164:13 *340:17 0.0543379
25 *168:19 *340:13 7.62712e-05
26 *208:40 gpio_dm2[38] 9.83492e-05
27 *212:13 *340:17 0.000390832
28 *296:9 *340:9 0.0130168
29 *296:9 *340:13 0.00311508
30 *300:21 *340:17 0.000263857
31 *301:9 *340:9 0.00969574
*RES
1 *874:gpio_dm2[38] *340:7 3.82987 
2 *340:7 *340:9 191.214 
3 *340:9 *340:11 0.535714 
4 *340:11 *340:13 70.1071 
5 *340:13 *340:15 3.41 
6 *340:15 *340:17 90.1303 
7 *340:17 gpio_dm2[38] 8.63321 
*END

*D_NET *341 0.174858
*CONN
*P gpio_dm2[39] O
*I *874:gpio_dm2[39] O *D counter_gpio_config_example
*CAP
1 gpio_dm2[39] 1.06045e-05
2 *874:gpio_dm2[39] 0.000181773
3 *341:13 0.0327864
4 *341:11 0.0327758
5 *341:9 0.0224654
6 *341:7 0.0226472
7 *341:9 gpio_slow_sel[3] 0.00864642
8 *341:13 gpio_holdover[39] 0.00131098
9 *341:13 *385:13 0.0449811
10 *128:15 *341:7 3.64239e-05
11 *128:15 *341:9 9.11651e-05
12 *315:7 *341:7 4.1194e-05
13 *315:9 *341:7 5.66041e-06
14 *315:9 *341:9 0.00887833
*RES
1 *874:gpio_dm2[39] *341:7 0.556167 
2 *341:7 *341:9 80.9418 
3 *341:9 *341:11 3.41 
4 *341:11 *341:13 872.161 
5 *341:13 gpio_dm2[39] 0.223214 
*END

*D_NET *342 0.599492
*CONN
*P gpio_dm2[3] O
*I *874:gpio_dm2[3] O *D counter_gpio_config_example
*CAP
1 gpio_dm2[3] 0.00163974
2 *874:gpio_dm2[3] 0.00939154
3 *342:25 0.0273597
4 *342:23 0.0257199
5 *342:21 0.0867234
6 *342:19 0.096115
7 gpio_dm2[3] gpio_holdover[3] 0
8 gpio_dm2[3] *738:25 5.66152e-05
9 *342:19 *344:19 0.00025059
10 *342:19 *347:9 0.00214617
11 *342:19 *354:15 3.61363e-05
12 *342:19 *377:7 3.61363e-05
13 *342:19 *389:9 0.000348495
14 *342:19 *404:11 0.000427427
15 *342:19 *433:10 0
16 *342:19 *471:15 4.88232e-05
17 *342:19 *560:11 0.000761507
18 *342:19 *564:8 0.000535631
19 *342:19 *566:8 3.3981e-05
20 *342:21 *404:15 0.0162302
21 *342:21 *457:23 4.3304e-06
22 *342:21 *482:15 0.231702
23 *342:21 *484:15 0.00032984
24 *342:21 *662:19 0
25 *342:21 *738:17 0
26 *342:21 *782:27 0
27 *342:25 gpio_out[2] 0
28 gpio_analog_sel[3] gpio_dm2[3] 0.000316608
29 gpio_dm0[2] *342:25 0
30 gpio_dm0[3] *342:25 0
31 gpio_dm2[2] *342:25 0
32 *129:9 *342:19 0.00175295
33 *155:25 *342:25 0.0397354
34 *296:9 *342:19 0.00037709
35 *301:9 *342:19 0.000387018
36 *302:9 *342:19 0.00025059
37 *309:13 *342:19 5.16445e-05
38 *309:13 *342:21 0.0563158
39 *340:9 *342:19 0.000407939
*RES
1 *874:gpio_dm2[3] *342:19 38.0337 
2 *342:19 *342:21 2628.29 
3 *342:21 *342:23 4.5 
4 *342:23 *342:25 706.08 
5 *342:25 gpio_dm2[3] 7.48255 
*END

*D_NET *343 0.221978
*CONN
*P gpio_dm2[40] O
*I *874:gpio_dm2[40] O *D counter_gpio_config_example
*CAP
1 gpio_dm2[40] 0.00110393
2 *874:gpio_dm2[40] 0.000309535
3 *343:21 0.00721597
4 *343:19 0.00611204
5 *343:17 0.0296342
6 *343:15 0.0296342
7 *343:13 0.00826298
8 *343:11 0.00857252
9 gpio_dm2[40] *387:13 0
10 *343:11 *405:7 4.03322e-05
11 *343:11 *405:9 0
12 *343:11 *422:11 0.000151246
13 *343:13 *549:13 0
14 *343:13 *760:17 0.0212534
15 *343:13 *771:13 0.0268708
16 *343:17 *434:13 0.0774088
17 *211:21 gpio_dm2[40] 0
18 *211:21 *343:21 0.00540766
*RES
1 *874:gpio_dm2[40] *343:11 4.50239 
2 *343:11 *343:13 380.196 
3 *343:13 *343:15 3.41 
4 *343:15 *343:17 122.56 
5 *343:17 *343:19 3.41 
6 *343:19 *343:21 142.348 
7 *343:21 gpio_dm2[40] 29.0536 
*END

*D_NET *344 0.451911
*CONN
*P gpio_dm2[41] O
*I *874:gpio_dm2[41] O *D counter_gpio_config_example
*CAP
1 gpio_dm2[41] 0.000238946
2 *874:gpio_dm2[41] 0.00118044
3 *344:35 0.0194975
4 *344:33 0.028386
5 *344:19 0.0198017
6 *344:17 0.0118547
7 gpio_dm2[41] *388:25 0
8 *344:17 *532:17 1.8769e-06
9 *344:17 *664:18 0
10 *344:17 *665:20 0.000322558
11 *344:19 *347:9 0.000309406
12 *344:19 *389:9 0.0215998
13 *344:19 *391:9 0.000519164
14 *344:33 *433:22 0.00366774
15 *344:35 *433:22 0
16 *344:35 *739:9 0.0134408
17 *344:35 *828:13 0.00309257
18 gpio_analog_sel[41] gpio_dm2[41] 0
19 *125:19 *344:19 1.90555e-05
20 *125:21 *344:35 0.000943124
21 *139:9 *344:19 0.00134121
22 *147:9 *344:19 0.00401304
23 *164:13 *344:33 9.37046e-05
24 *164:13 *344:35 0.00532457
25 *168:19 *344:33 0.000147572
26 *168:21 *344:35 0.136459
27 *179:15 *344:17 9.81677e-05
28 *212:13 *344:35 0.00020357
29 *288:7 *344:17 7.65483e-05
30 *296:9 *344:19 0.00826076
31 *300:21 *344:35 0.126996
32 *301:9 *344:17 0.000630289
33 *302:9 *344:19 0.0310682
34 *323:7 *344:17 0.000166525
35 *340:17 *344:33 0.0116215
36 *340:17 *344:35 0.000284522
37 *342:19 *344:19 0.00025059
*RES
1 *874:gpio_dm2[41] *344:17 32.1541 
2 *344:17 *344:19 531.982 
3 *344:19 *344:33 45.2156 
4 *344:33 *344:35 1307.84 
5 *344:35 gpio_dm2[41] 9.16071 
*END

*D_NET *345 0.242694
*CONN
*P gpio_dm2[42] O
*I *874:gpio_dm2[42] O *D counter_gpio_config_example
*CAP
1 gpio_dm2[42] 0.000315595
2 *874:gpio_dm2[42] 0.000163017
3 *345:23 0.0112181
4 *345:17 0.0142631
5 *345:15 0.00338682
6 *345:13 0.0291336
7 *345:11 0.0291074
8 *345:9 0.0590047
9 *345:7 0.0591677
10 gpio_dm2[42] *389:21 0
11 *345:7 *394:7 3.6865e-05
12 *345:7 *394:9 6.00628e-06
13 *345:7 *400:11 3.6865e-05
14 *345:9 *394:9 0.0111296
15 *345:9 *400:11 0.00205181
16 *345:9 *463:7 0
17 *345:9 *771:21 0
18 *345:13 *696:18 0
19 *345:17 gpio_vtrip_sel[41] 4.6025e-06
20 *345:17 *432:23 0
21 *345:17 *696:18 0
22 *345:23 *433:22 0.000478189
23 *345:23 *478:9 0
24 *257:19 *345:23 0.0231896
*RES
1 *874:gpio_dm2[42] *345:7 0.556167 
2 *345:7 *345:9 169.007 
3 *345:9 *345:11 3.41 
4 *345:11 *345:13 591.929 
5 *345:13 *345:15 0.535714 
6 *345:15 *345:17 68.8929 
7 *345:17 *345:23 47.3685 
8 *345:23 gpio_dm2[42] 6.1875 
*END

*D_NET *346 0.323552
*CONN
*P gpio_dm2[43] O
*I *874:gpio_dm2[43] O *D counter_gpio_config_example
*CAP
1 gpio_dm2[43] 0.00103784
2 *874:gpio_dm2[43] 0.00389924
3 *346:21 0.041078
4 *346:19 0.0400402
5 *346:17 0.0900609
6 *346:15 0.0900609
7 *346:13 0.00159637
8 *346:11 0.00549561
9 gpio_dm2[43] *390:21 0
10 *346:13 *357:21 0
11 *346:13 *749:25 0.00398703
12 *346:17 *397:9 0
13 *346:21 *742:13 0
14 *114:19 *346:11 0.000449161
15 *128:17 *346:13 0.000365629
16 *185:11 *346:11 0
17 *214:21 gpio_dm2[43] 0
18 *214:21 *346:21 0.045453
19 *265:7 *346:11 2.57346e-05
20 *265:9 *346:11 2.43137e-06
21 *331:9 *346:17 0
*RES
1 *874:gpio_dm2[43] *346:11 11.9253 
2 *346:11 *346:13 49.3036 
3 *346:13 *346:15 3.41 
4 *346:15 *346:17 243.776 
5 *346:17 *346:19 3.41 
6 *346:19 *346:21 1022.71 
7 *346:21 gpio_dm2[43] 29.8571 
*END

*D_NET *347 0.582152
*CONN
*P gpio_dm2[4] O
*I *874:gpio_dm2[4] O *D counter_gpio_config_example
*CAP
1 gpio_dm2[4] 0.000185606
2 *874:gpio_dm2[4] 0.000202614
3 *347:21 0.0933023
4 *347:19 0.0932218
5 *347:9 0.0339931
6 *347:7 0.0340905
7 gpio_dm2[4] gpio_holdover[4] 4.98354e-05
8 *347:7 *569:17 5.69428e-05
9 *347:9 *389:9 0.000209944
10 *347:9 *391:9 0.0531562
11 *347:9 *434:9 0.00103975
12 *347:19 *425:17 2.35215e-05
13 *347:19 *557:17 4.88232e-05
14 *347:21 *391:21 0.122667
15 *347:21 *557:17 0.000108827
16 gpio_analog_sel[4] gpio_dm2[4] 5.77053e-05
17 *102:7 *347:7 6.06392e-05
18 *117:17 *347:21 0.000101825
19 *127:21 *347:21 0
20 *129:9 *347:9 0.0646523
21 *139:9 *347:9 0.00761491
22 *139:9 *347:19 0.000225803
23 *143:9 *347:19 0.000229468
24 *147:9 *347:9 0.00561403
25 *148:17 *347:21 0.0586994
26 *302:9 *347:9 0.00112481
27 *338:17 *347:21 0.00895906
28 *342:19 *347:9 0.00214617
29 *344:19 *347:9 0.000309406
*RES
1 *874:gpio_dm2[4] *347:7 4.01003 
2 *347:7 *347:9 149.194 
3 *347:9 *347:19 14.412 
4 *347:19 *347:21 2648.41 
5 *347:21 gpio_dm2[4] 8.5599 
*END

*D_NET *348 0.420539
*CONN
*P gpio_dm2[5] O
*I *874:gpio_dm2[5] O *D counter_gpio_config_example
*CAP
1 gpio_dm2[5] 0.00265984
2 *874:gpio_dm2[5] 0.0001504
3 *348:13 0.0379575
4 *348:11 0.0352977
5 *348:9 0.123212
6 *348:7 0.123362
7 gpio_dm2[5] gpio_holdover[5] 0.00193824
8 gpio_dm2[5] gpio_out[5] 0
9 gpio_dm2[5] *392:17 0.00302025
10 *348:7 *387:7 4.51034e-05
11 *348:7 *387:9 6.90276e-06
12 *348:9 *387:9 0.0139276
13 *348:13 gpio_ib_mode_sel[4] 0.012573
14 *348:13 *483:11 0.00143976
15 *348:13 *484:11 0.0261507
16 *348:13 *700:13 0.0086398
17 gpio_analog_pol[4] *348:13 0.000141629
18 *89:13 *348:13 0.0187434
19 *188:13 *348:13 0.00435511
20 *275:7 *348:7 4.51034e-05
21 *275:7 *348:9 6.90276e-06
22 *275:9 *348:9 0.00686614
*RES
1 *874:gpio_dm2[5] *348:7 0.556167 
2 *348:7 *348:9 362.398 
3 *348:9 *348:11 3.41 
4 *348:11 *348:13 123.732 
5 *348:13 gpio_dm2[5] 11.6279 
*END

*D_NET *349 0.671543
*CONN
*P gpio_dm2[6] O
*I *874:gpio_dm2[6] O *D counter_gpio_config_example
*CAP
1 gpio_dm2[6] 0.00281014
2 *874:gpio_dm2[6] 0.00311216
3 *349:13 0.118853
4 *349:11 0.116043
5 *349:9 0.0148784
6 *349:7 0.0179906
7 gpio_dm2[6] *393:13 0.000533744
8 *349:7 *366:7 0.000680375
9 *349:9 *529:9 0.00049359
10 *349:13 *393:13 0
11 *102:9 *349:9 0.0270639
12 *168:9 *349:9 0.00728326
13 *173:9 *349:9 0.0617566
14 *205:21 *349:9 0.005506
15 *207:7 *349:7 0.000680375
16 *217:13 gpio_dm2[6] 0.00052999
17 *217:13 *349:13 0.293329
*RES
1 *874:gpio_dm2[6] *349:7 11.3248 
2 *349:7 *349:9 793.054 
3 *349:9 *349:11 3.41 
4 *349:11 *349:13 466.138 
5 *349:13 gpio_dm2[6] 7.26072 
*END

*D_NET *350 0.729679
*CONN
*P gpio_dm2[7] O
*I *874:gpio_dm2[7] O *D counter_gpio_config_example
*CAP
1 gpio_dm2[7] 7.74317e-05
2 *874:gpio_dm2[7] 0.00344209
3 *350:19 0.149385
4 *350:17 0.149308
5 *350:15 0.123752
6 *350:13 0.127194
7 *350:13 *352:15 4.22137e-05
8 *350:13 *379:11 0
9 *350:15 *535:9 0.00668595
10 *350:19 gpio_holdover[7] 0.00115313
11 *350:19 *394:17 0.148083
12 *218:17 *350:19 0
13 *316:9 *350:13 0.00172845
14 *317:9 *350:15 0.0070958
15 *322:9 *350:15 0.00623925
16 *323:9 *350:15 0.00549247
*RES
1 *874:gpio_dm2[7] *350:13 10.4052 
2 *350:13 *350:15 277.917 
3 *350:15 *350:17 3.41 
4 *350:17 *350:19 467.374 
5 *350:19 gpio_dm2[7] 0.238917 
*END

*D_NET *351 0.658691
*CONN
*P gpio_dm2[8] O
*I *874:gpio_dm2[8] O *D counter_gpio_config_example
*CAP
1 gpio_dm2[8] 0.00536404
2 *874:gpio_dm2[8] 0.000214015
3 *351:13 0.0629631
4 *351:11 0.0575991
5 *351:9 0.0917824
6 *351:7 0.0919964
7 gpio_dm2[8] gpio_holdover[8] 0.00194297
8 gpio_dm2[8] gpio_out[8] 5.99199e-06
9 gpio_dm2[8] *395:13 1.81922e-05
10 gpio_dm2[8] *747:9 0.00970569
11 *351:9 *479:7 0.214895
12 *134:13 *351:13 0.118662
13 *216:7 *351:7 3.0855e-05
14 *216:9 *351:7 3.3599e-06
15 *216:9 *351:9 0.000393843
16 *258:11 *351:7 3.0855e-05
17 *258:11 *351:9 0.00150938
18 *303:13 *351:13 0.00157346
*RES
1 *874:gpio_dm2[8] *351:7 0.556167 
2 *351:7 *351:9 351.732 
3 *351:9 *351:11 3.41 
4 *351:11 *351:13 253.17 
5 *351:13 gpio_dm2[8] 22.5445 
*END

*D_NET *352 0.925104
*CONN
*P gpio_dm2[9] O
*I *874:gpio_dm2[9] O *D counter_gpio_config_example
*CAP
1 gpio_dm2[9] 0.00257393
2 *874:gpio_dm2[9] 0.00103222
3 *352:21 0.122973
4 *352:19 0.120399
5 *352:17 0.0579852
6 *352:15 0.0581345
7 *352:9 0.0353906
8 *352:7 0.0362735
9 gpio_dm2[9] gpio_holdover[9] 0
10 *352:7 *359:7 0.000202438
11 *352:15 *379:11 1.73824e-05
12 *352:17 *359:9 0.0394347
13 *352:17 *535:9 0
14 *352:21 gpio_holdover[9] 0
15 *162:7 *352:7 0.000218347
16 *220:21 gpio_dm2[9] 0.00193339
17 *220:21 *352:21 0.285888
18 *311:9 *352:17 0.160761
19 *317:9 *352:9 0.000333729
20 *322:9 *352:9 0.000936918
21 *323:9 *352:9 0.000574623
22 *350:13 *352:15 4.22137e-05
*RES
1 *874:gpio_dm2[9] *352:7 6.17203 
2 *352:7 *352:9 74.6203 
3 *352:9 *352:15 7.11923 
4 *352:15 *352:17 2006.73 
5 *352:17 *352:19 3.41 
6 *352:19 *352:21 460.733 
7 *352:21 gpio_dm2[9] 6.95992 
*END

*D_NET *353 0.324544
*CONN
*P gpio_holdover[0] O
*I *874:gpio_holdover[0] O *D counter_gpio_config_example
*CAP
1 gpio_holdover[0] 0.00466748
2 *874:gpio_holdover[0] 0.000142709
3 *353:13 0.0214915
4 *353:11 0.016824
5 *353:9 0.108601
6 *353:7 0.108744
7 gpio_holdover[0] *705:45 0.00442077
8 *353:7 *437:7 4.72078e-05
9 *353:9 *430:13 0.00077554
10 *353:9 *437:7 8.12865e-06
11 *353:9 *437:9 0.0397725
12 gpio_analog_sel[0] gpio_holdover[0] 0
13 gpio_dm2[0] gpio_holdover[0] 0
14 *92:13 *353:13 0.000804837
15 *100:13 *353:13 0
16 *177:17 gpio_holdover[0] 0
17 *199:15 *353:13 0.00934483
18 *209:7 *353:7 4.72078e-05
19 *209:9 *353:7 8.12865e-06
20 *209:9 *353:9 0.00884433
*RES
1 *874:gpio_holdover[0] *353:7 0.556167 
2 *353:7 *353:9 358.218 
3 *353:9 *353:11 3.41 
4 *353:11 *353:13 59.2795 
5 *353:13 gpio_holdover[0] 16.5003 
*END

*D_NET *354 0.85182
*CONN
*P gpio_holdover[10] O
*I *874:gpio_holdover[10] O *D counter_gpio_config_example
*CAP
1 gpio_holdover[10] 0.00163902
2 *874:gpio_holdover[10] 0.00821951
3 *354:21 0.134951
4 *354:19 0.133311
5 *354:17 0.0967719
6 *354:15 0.104991
7 gpio_holdover[10] *706:17 0
8 *354:15 *377:7 0
9 *354:17 *373:9 0.00480555
10 *354:17 *823:10 0
11 *178:21 *354:21 0
12 *193:7 *354:15 0.00113674
13 *291:9 *354:15 0.00238172
14 *307:7 *354:15 0.000111282
15 *307:17 *354:17 0.139046
16 *310:17 gpio_holdover[10] 0.000391042
17 *310:17 *354:21 0.224027
18 *342:19 *354:15 3.61363e-05
*RES
1 *874:gpio_holdover[10] *354:15 32.5049 
2 *354:15 *354:17 2544.05 
3 *354:17 *354:19 3.41 
4 *354:19 *354:21 477.849 
5 *354:21 gpio_holdover[10] 13.5895 
*END

*D_NET *355 0.588883
*CONN
*P gpio_holdover[11] O
*I *874:gpio_holdover[11] O *D counter_gpio_config_example
*CAP
1 gpio_holdover[11] 0.00144184
2 *874:gpio_holdover[11] 0.000129452
3 *355:17 0.107946
4 *355:15 0.106504
5 *355:13 0.146105
6 *355:11 0.146105
7 *355:9 0.022165
8 *355:7 0.0222945
9 gpio_holdover[11] gpio_out[11] 0.000268602
10 *355:7 *370:11 2.75692e-05
11 *355:9 *370:11 8.23612e-05
12 *355:9 *409:11 0
13 *355:9 *771:19 0
14 *355:9 *771:21 0
15 *355:17 gpio_out[11] 0
16 *355:17 *707:17 0.035091
17 gpio_dm2[11] gpio_holdover[11] 0.000264849
18 gpio_dm2[11] *355:17 0.000406484
19 *237:7 *355:7 2.38223e-05
20 *237:7 *355:9 8.12865e-06
21 *287:15 *355:13 2.05803e-05
22 *311:13 *355:17 0
*RES
1 *874:gpio_holdover[11] *355:7 0.412033 
2 *355:7 *355:9 57.7003 
3 *355:9 *355:11 3.41 
4 *355:11 *355:13 427.033 
5 *355:13 *355:15 3.41 
6 *355:15 *355:17 309.79 
7 *355:17 gpio_holdover[11] 3.78585 
*END

*D_NET *356 0.576556
*CONN
*P gpio_holdover[12] O
*I *874:gpio_holdover[12] O *D counter_gpio_config_example
*CAP
1 gpio_holdover[12] 0.0148636
2 *874:gpio_holdover[12] 0.000200817
3 *356:20 0
4 *356:13 0.155898
5 *356:11 0.141035
6 *356:9 0.123479
7 *356:7 0.123679
8 gpio_holdover[12] gpio_out[12] 0.01371
9 gpio_holdover[12] *796:17 0
10 *356:7 *401:11 3.55467e-05
11 *356:7 *541:11 3.14194e-05
12 *356:9 *401:11 0.0015223
13 *356:9 *541:11 0.0021004
14 gpio_dm2[12] gpio_holdover[12] 0
15 *100:9 *356:9 0
16 *257:9 *356:9 0
17 *312:17 gpio_holdover[12] 0
*RES
1 *874:gpio_holdover[12] *356:7 0.556167 
2 *356:7 *356:9 325.644 
3 *356:9 *356:11 3.41 
4 *356:11 *356:13 414.781 
5 *356:13 gpio_holdover[12] 48.3295 
6 gpio_holdover[12] *356:20 0.0626667 
*END

*D_NET *357 0.742855
*CONN
*P gpio_holdover[13] O
*I *874:gpio_holdover[13] O *D counter_gpio_config_example
*CAP
1 gpio_holdover[13] 0.00143947
2 *874:gpio_holdover[13] 0.0121686
3 *357:25 0.13424
4 *357:23 0.132801
5 *357:21 0.09378
6 *357:19 0.09378
7 *357:17 0.0121686
8 gpio_holdover[13] gpio_out[13] 0
9 *357:17 gpio_slow_sel[3] 0.000666473
10 *357:17 *376:13 0.00627841
11 *357:17 *419:15 0.000745269
12 *357:17 *561:11 0
13 *357:17 *683:13 0.000106304
14 *357:21 *674:13 0.22705
15 *357:21 *749:25 0
16 *357:25 gpio_out[13] 0
17 gpio_dm2[13] gpio_holdover[13] 0.000971411
18 gpio_dm2[13] *357:25 0.0224559
19 *109:13 *357:17 0
20 *128:15 *357:17 0.000290045
21 *153:13 *357:17 0
22 *239:13 *357:17 0.00112481
23 *243:15 *357:17 4.84766e-05
24 *273:7 *357:17 2.90709e-05
25 *273:9 *357:17 0.000781226
26 *281:13 *357:17 0.000309406
27 *286:13 *357:17 0.00162156
28 *346:13 *357:21 0
*RES
1 *874:gpio_holdover[13] *357:17 47.8222 
2 *357:17 *357:19 3.41 
3 *357:19 *357:21 2833.66 
4 *357:21 *357:23 3.41 
5 *357:23 *357:25 358.939 
6 *357:25 gpio_holdover[13] 12.3376 
*END

*D_NET *358 0.702765
*CONN
*P gpio_holdover[14] O
*I *874:gpio_holdover[14] O *D counter_gpio_config_example
*CAP
1 gpio_holdover[14] 9.82153e-05
2 *874:gpio_holdover[14] 0.000185311
3 *358:17 0.0888959
4 *358:15 0.0887976
5 *358:13 0.210242
6 *358:11 0.210242
7 *358:9 0.0509818
8 *358:7 0.0511671
9 *358:9 *546:11 0
10 *358:17 gpio_out[14] 0.00185362
11 gpio_dm2[14] *358:17 0.0002641
12 *182:17 *358:17 0
13 *218:13 *358:13 0
14 *234:11 *358:7 3.79145e-05
15 *287:7 *358:7 0
16 *287:9 *358:9 0
*RES
1 *874:gpio_holdover[14] *358:7 0.556167 
2 *358:7 *358:9 132.217 
3 *358:9 *358:11 3.41 
4 *358:11 *358:13 616.555 
5 *358:13 *358:15 3.41 
6 *358:15 *358:17 238.346 
7 *358:17 gpio_holdover[14] 0.329783 
*END

*D_NET *359 0.778652
*CONN
*P gpio_holdover[15] O
*I *874:gpio_holdover[15] O *D counter_gpio_config_example
*CAP
1 gpio_holdover[15] 8.67511e-05
2 *874:gpio_holdover[15] 0.00100395
3 *359:17 0.148829
4 *359:15 0.148742
5 *359:13 0.158771
6 *359:11 0.158771
7 *359:9 0.0210893
8 *359:7 0.0220932
9 gpio_holdover[15] gpio_out[15] 0
10 *359:9 *535:9 0.001049
11 *359:9 *663:9 0.00132216
12 *359:13 *536:13 0
13 *359:13 *684:11 0
14 *359:13 *685:11 0.0111282
15 *359:13 *812:11 0
16 gpio_dm2[15] gpio_holdover[15] 0
17 gpio_dm2[15] *359:17 0
18 *164:7 *359:7 0.00012219
19 *220:7 *359:7 0
20 *300:9 *359:9 0.0113896
21 *311:9 *359:9 0.00434866
22 *324:9 *359:9 0.0502685
23 *352:7 *359:7 0.000202438
24 *352:17 *359:9 0.0394347
*RES
1 *874:gpio_holdover[15] *359:7 5.99187 
2 *359:7 *359:9 915.089 
3 *359:9 *359:11 3.41 
4 *359:11 *359:13 432.087 
5 *359:13 *359:15 3.41 
6 *359:15 *359:17 3062.55 
7 *359:17 gpio_holdover[15] 1.60714 
*END

*D_NET *360 0.73565
*CONN
*P gpio_holdover[16] O
*I *874:gpio_holdover[16] O *D counter_gpio_config_example
*CAP
1 gpio_holdover[16] 0.154235
2 *874:gpio_holdover[16] 0.000664408
3 *360:15 0.154235
4 *360:13 0.11625
5 *360:11 0.11625
6 *360:9 0.0080949
7 *360:7 0.00875931
8 gpio_holdover[16] gpio_out[16] 0
9 *360:7 *395:7 0.000150237
10 *360:9 *663:9 0
11 *360:13 *543:17 0
12 *360:13 *665:28 0
13 *360:13 *750:11 0.000373251
14 gpio_dm2[16] gpio_holdover[16] 0
15 *143:13 *360:13 0.101198
16 *154:7 *360:7 0.000150237
17 *229:9 *360:9 0.0383438
18 *271:9 *360:9 0.036946
19 *290:17 *360:13 0
20 *322:13 *360:13 0
*RES
1 *874:gpio_holdover[16] *360:7 5.12707 
2 *360:7 *360:9 479.768 
3 *360:9 *360:11 3.41 
4 *360:11 *360:13 351.444 
5 *360:13 *360:15 3.41 
6 *360:15 gpio_holdover[16] 3119.56 
*END

*D_NET *361 1.10424
*CONN
*P gpio_holdover[17] O
*I *874:gpio_holdover[17] O *D counter_gpio_config_example
*CAP
1 gpio_holdover[17] 0.00105641
2 *874:gpio_holdover[17] 0.00767035
3 *361:13 0.0813288
4 *361:11 0.0802724
5 *361:9 0.106787
6 *361:7 0.114457
7 gpio_holdover[17] gpio_out[17] 0
8 *361:7 *413:7 0.001539
9 *361:9 gpio_holdover[32] 0.000110051
10 *361:9 *365:9 0.282063
11 *361:9 *413:17 0.0608045
12 *361:9 *414:9 0
13 *361:9 *464:11 0
14 *361:13 gpio_holdover[19] 0
15 *361:13 gpio_inp_dis[20] 0.00199484
16 *361:13 *365:13 0.00381854
17 *361:13 *673:17 0.0374001
18 *361:13 *676:9 0
19 gpio_dm2[17] gpio_holdover[17] 0
20 *96:13 *361:13 0.0777102
21 *123:7 *361:7 0.00046464
22 *159:9 *361:9 0.00270353
23 *274:13 *361:13 0.156411
24 *279:13 *361:13 0.0370445
25 *316:15 *361:13 0.0418372
26 *336:7 *361:7 0
27 *336:9 *361:9 0.00876457
*RES
1 *874:gpio_holdover[17] *361:7 22.0627 
2 *361:7 *361:9 3472.38 
3 *361:9 *361:11 3.41 
4 *361:11 *361:13 328.094 
5 *361:13 gpio_holdover[17] 24.1154 
*END

*D_NET *362 0.489627
*CONN
*P gpio_holdover[18] O
*I *874:gpio_holdover[18] O *D counter_gpio_config_example
*CAP
1 gpio_holdover[18] 0.172319
2 *874:gpio_holdover[18] 0.000143263
3 *362:11 0.172319
4 *362:9 0.0532022
5 *362:7 0.0533455
6 gpio_holdover[18] gpio_out[18] 0
7 gpio_holdover[18] *714:21 0.0365642
8 *362:9 *815:21 0
9 gpio_dm2[18] gpio_holdover[18] 0
10 *169:11 *362:7 5.41024e-05
11 *169:11 *362:9 0.000809109
12 *214:11 *362:7 4.72078e-05
13 *214:11 *362:9 0.000824066
*RES
1 *874:gpio_holdover[18] *362:7 0.556167 
2 *362:7 *362:9 145.658 
3 *362:9 *362:11 3.41 
4 *362:11 gpio_holdover[18] 3538.49 
*END

*D_NET *363 0.43593
*CONN
*P gpio_holdover[19] O
*I *874:gpio_holdover[19] O *D counter_gpio_config_example
*CAP
1 gpio_holdover[19] 0.00709945
2 *874:gpio_holdover[19] 0.00018082
3 *363:13 0.165866
4 *363:11 0.158766
5 *363:9 0.016697
6 *363:7 0.0168778
7 gpio_holdover[19] gpio_out[19] 0
8 gpio_holdover[19] *538:13 0
9 *363:9 *390:11 0
10 gpio_dm2[19] gpio_holdover[19] 0
11 *172:7 *363:7 4.1194e-05
12 *172:7 *363:9 5.66041e-06
13 *172:9 *363:9 0.00552805
14 *213:11 *363:7 4.68544e-05
15 *213:11 *363:9 0.00113956
16 *308:13 *363:13 0.0636815
17 *361:13 gpio_holdover[19] 0
*RES
1 *874:gpio_holdover[19] *363:7 0.556167 
2 *363:7 *363:9 51.1783 
3 *363:9 *363:11 3.41 
4 *363:11 *363:13 3262.91 
5 *363:13 gpio_holdover[19] 48.3454 
*END

*D_NET *364 0.426922
*CONN
*P gpio_holdover[1] O
*I *874:gpio_holdover[1] O *D counter_gpio_config_example
*CAP
1 gpio_holdover[1] 5.34235e-05
2 *874:gpio_holdover[1] 0.000200045
3 *364:17 0.0672629
4 *364:15 0.0672094
5 *364:13 0.021256
6 *364:11 0.021256
7 *364:9 0.0366906
8 *364:7 0.0368906
9 gpio_analog_sel[1] *364:17 0.0011814
10 gpio_dm2[1] *364:17 0.00194238
11 *104:11 *364:7 2.75538e-05
12 *104:11 *364:9 0.000248731
13 *131:9 *364:17 0
14 *238:11 *364:7 3.84969e-05
15 *238:11 *364:9 0.000331955
16 *254:15 *364:9 0
17 *269:9 *364:9 0
18 *320:17 *364:17 0.172333
*RES
1 *874:gpio_holdover[1] *364:7 0.504894 
2 *364:7 *364:9 94.3102 
3 *364:9 *364:11 3.41 
4 *364:11 *364:13 60.3449 
5 *364:13 *364:15 3.41 
6 *364:15 *364:17 276.253 
7 *364:17 gpio_holdover[1] 0.179383 
*END

*D_NET *365 0.8155
*CONN
*P gpio_holdover[20] O
*I *874:gpio_holdover[20] O *D counter_gpio_config_example
*CAP
1 gpio_holdover[20] 0.00101605
2 *874:gpio_holdover[20] 0.00617462
3 *365:13 0.0206885
4 *365:11 0.0196724
5 *365:9 0.122415
6 *365:7 0.128589
7 gpio_holdover[20] gpio_out[20] 0
8 gpio_holdover[20] *717:13 0
9 *365:7 *414:7 0.00181723
10 *365:9 *413:17 0.0574801
11 *365:9 *414:9 0
12 *365:9 *810:21 0
13 *365:13 *366:13 0.00171372
14 gpio_dm2[20] gpio_holdover[20] 0
15 *101:17 *365:13 0.0797687
16 *119:11 *365:9 0.00380518
17 *159:9 *365:9 0.00101967
18 *248:7 *365:7 0.00173285
19 *274:13 *365:13 0.0783995
20 *321:13 gpio_holdover[20] 0
21 *336:9 *365:9 0.005325
22 *361:9 *365:9 0.282063
23 *361:13 *365:13 0.00381854
*RES
1 *874:gpio_holdover[20] *365:7 21.9907 
2 *365:7 *365:9 3792.34 
3 *365:9 *365:11 3.41 
4 *365:11 *365:13 138.127 
5 *365:13 gpio_holdover[20] 23.3564 
*END

*D_NET *366 0.706821
*CONN
*P gpio_holdover[21] O
*I *874:gpio_holdover[21] O *D counter_gpio_config_example
*CAP
1 gpio_holdover[21] 0.000951379
2 *874:gpio_holdover[21] 0.00724764
3 *366:13 0.0267857
4 *366:11 0.0258344
5 *366:9 0.102521
6 *366:7 0.109768
7 gpio_holdover[21] gpio_out[21] 0
8 *366:9 *373:17 0.0402138
9 *366:9 *413:9 0.0234697
10 *366:9 *810:21 0
11 *366:13 gpio_oeb[22] 0.000638035
12 gpio_dm2[21] gpio_holdover[21] 0
13 *101:17 *366:13 0.00103041
14 *157:9 *366:9 0.0020556
15 *161:9 *366:9 0.00362241
16 *183:21 *366:13 0.0106867
17 *184:21 *366:13 0.000123715
18 *189:13 *366:13 0.0527427
19 *206:11 *366:9 0.00186758
20 *207:7 *366:7 0
21 *248:9 *366:9 0.00340411
22 *272:21 *366:13 0.000143002
23 *280:9 *366:9 0.286259
24 *289:7 *366:7 0.00132613
25 *289:9 *366:9 0.00373617
26 *322:17 gpio_holdover[21] 0
27 *349:7 *366:7 0.000680375
28 *365:13 *366:13 0.00171372
*RES
1 *874:gpio_holdover[21] *366:7 20.9817 
2 *366:7 *366:9 3523.98 
3 *366:9 *366:11 3.41 
4 *366:11 *366:13 96.8325 
5 *366:13 gpio_holdover[21] 21.535 
*END

*D_NET *367 0.418507
*CONN
*P gpio_holdover[22] O
*I *874:gpio_holdover[22] O *D counter_gpio_config_example
*CAP
1 gpio_holdover[22] 0.152075
2 *874:gpio_holdover[22] 0.00176318
3 *367:27 0.152075
4 *367:25 0.00873499
5 *367:23 0.00924147
6 *367:17 0.00173642
7 *367:15 0.00299312
8 gpio_holdover[22] gpio_out[22] 0
9 gpio_holdover[22] *768:5 0
10 gpio_holdover[22] *791:5 0.00179394
11 gpio_holdover[22] *835:13 0.00459202
12 *367:15 *423:11 0.000320113
13 *367:15 *705:41 0.000254602
14 *367:17 *410:13 0.00327645
15 *367:17 *705:41 0.00067091
16 *367:25 *544:17 0.0364837
17 *367:25 *743:17 0.000987796
18 gpio_dm2[22] gpio_holdover[22] 0
19 *104:13 *367:15 0.000673518
20 *104:13 *367:17 0.00163845
21 *104:13 *367:23 1.19374e-05
22 *104:27 *367:25 0.00220344
23 *106:13 *367:17 0
24 *106:13 *367:23 0
25 *114:19 *367:17 0.00192286
26 *114:19 *367:23 0.000253412
27 *117:13 *367:17 0.000165754
28 *142:13 *367:25 0
29 *147:23 *367:25 0.00209389
30 *235:17 *367:25 0.0321768
31 *278:21 *367:17 4.75587e-05
32 *331:7 *367:15 4.26595e-05
33 *331:9 *367:15 0.000277454
*RES
1 *874:gpio_holdover[22] *367:15 16.2214 
2 *367:15 *367:17 61.7321 
3 *367:17 *367:23 13.8029 
4 *367:23 *367:25 58.6372 
5 *367:25 *367:27 3.41 
6 *367:27 gpio_holdover[22] 3137.17 
*END

*D_NET *368 0.651909
*CONN
*P gpio_holdover[23] O
*I *874:gpio_holdover[23] O *D counter_gpio_config_example
*CAP
1 gpio_holdover[23] 0.00163787
2 *874:gpio_holdover[23] 0.0109703
3 *368:65 0.00477523
4 *368:63 0.00313736
5 *368:61 0.0352374
6 *368:59 0.0352374
7 *368:57 0.168836
8 *368:55 0.175728
9 *368:39 0.014307
10 *368:13 0.018385
11 gpio_holdover[23] gpio_out[23] 0.00256056
12 *368:13 *378:13 0.00894318
13 *368:13 *422:13 0.000106304
14 *368:13 *549:13 0.000106304
15 *368:13 *551:7 5.44297e-05
16 *368:13 *551:9 7.31194e-05
17 *368:39 *370:13 0.000111243
18 *368:39 *378:13 0.00882311
19 *368:39 *378:19 0.000861062
20 *368:39 *556:13 0.00621242
21 *368:55 *370:13 0.000222486
22 *368:55 *378:19 0.00173398
23 *368:55 *378:21 0.00726049
24 *368:57 *370:13 0.0280703
25 *368:57 *378:21 0.0203204
26 *368:57 *546:13 0.0601755
27 *368:57 *549:13 0.012378
28 *368:61 *453:15 0
29 *368:61 *762:17 0
30 *368:61 *805:25 0
31 gpio_dm1[36] *368:39 2.46153e-05
32 gpio_dm2[23] gpio_holdover[23] 0
33 *94:11 *368:39 2.87269e-05
34 *104:27 *368:55 0.000120196
35 *122:193 *368:39 0.000354946
36 *160:17 *368:13 0.00707471
37 *160:17 *368:39 0.000638459
38 *160:17 *368:55 0.00309201
39 *160:17 *368:57 0.00328901
40 *165:7 *368:13 3.74514e-05
41 *165:9 *368:13 8.09555e-05
42 *171:9 *368:39 7.98938e-05
43 *172:9 *368:39 0.000143426
44 *195:9 *368:57 0
45 *200:13 *368:57 0.0102197
46 *237:9 *368:57 0
47 *293:11 *368:39 0.000192806
48 *324:17 *368:65 0
49 *334:13 *368:57 0.000160744
50 *335:13 *368:13 0.000106304
*RES
1 *874:gpio_holdover[23] *368:13 49.882 
2 *368:13 *368:39 39.5746 
3 *368:39 *368:55 27.4793 
4 *368:55 *368:57 531.222 
5 *368:57 *368:59 3.41 
6 *368:59 *368:61 96.1479 
7 *368:61 *368:63 3.41 
8 *368:63 *368:65 65.1429 
9 *368:65 gpio_holdover[23] 42.9732 
*END

*D_NET *369 0.70144
*CONN
*P gpio_holdover[24] O
*I *874:gpio_holdover[24] O *D counter_gpio_config_example
*CAP
1 gpio_holdover[24] 0.0107542
2 *874:gpio_holdover[24] 0.00197288
3 *369:9 0.0779093
4 *369:7 0.069128
5 gpio_holdover[24] *721:17 0
6 *369:7 *418:7 0.000387441
7 *369:9 *778:13 0.0175223
8 gpio_dm2[24] gpio_holdover[24] 0.000178417
9 *93:17 *369:9 0
10 *99:9 *369:9 0
11 *105:17 *369:9 0.0173748
12 *194:9 *369:9 0.204822
13 *244:9 *369:9 0.025937
14 *259:15 *369:7 0.000387441
15 *316:11 *369:9 0.275067
*RES
1 *874:gpio_holdover[24] *369:7 8.44213 
2 *369:7 *369:9 3667.88 
3 *369:9 gpio_holdover[24] 41.3463 
*END

*D_NET *370 0.605062
*CONN
*P gpio_holdover[25] O
*I *874:gpio_holdover[25] O *D counter_gpio_config_example
*CAP
1 gpio_holdover[25] 0.000715632
2 *874:gpio_holdover[25] 0.000537157
3 *370:17 0.0463041
4 *370:15 0.0455885
5 *370:13 0.0471132
6 *370:11 0.0476503
7 gpio_holdover[25] *546:21 0
8 *370:11 *533:11 7.47161e-05
9 *370:11 *771:19 6.96553e-05
10 *370:13 *378:19 0.000111243
11 *370:13 *378:21 0.00619943
12 *370:13 *546:13 0.209666
13 *370:13 *549:13 0.166608
14 *370:17 gpio_vtrip_sel[25] 0.00196618
15 *370:17 *722:17 0
16 *370:17 *796:17 0.0035892
17 gpio_dm2[25] gpio_holdover[25] 0.000244817
18 *176:11 *370:13 0.000110051
19 *355:7 *370:11 2.75692e-05
20 *355:9 *370:11 8.23612e-05
21 *368:39 *370:13 0.000111243
22 *368:55 *370:13 0.000222486
23 *368:57 *370:13 0.0280703
*RES
1 *874:gpio_holdover[25] *370:11 4.93479 
2 *370:11 *370:13 2648.48 
3 *370:13 *370:15 3.41 
4 *370:15 *370:17 126.164 
5 *370:17 gpio_holdover[25] 18.2304 
*END

*D_NET *371 0.529543
*CONN
*P gpio_holdover[26] O
*I *874:gpio_holdover[26] O *D counter_gpio_config_example
*CAP
1 gpio_holdover[26] 0.00158237
2 *874:gpio_holdover[26] 0.011116
3 *371:9 0.253158
4 *371:7 0.262691
5 gpio_holdover[26] *723:9 0
6 *371:7 *439:7 0.000278867
7 gpio_dm2[26] gpio_holdover[26] 0.000221883
8 *93:7 *371:7 0.000389452
9 *195:13 gpio_holdover[26] 0.000105236
*RES
1 *874:gpio_holdover[26] *371:7 31.3954 
2 *371:7 *371:9 507.678 
3 *371:9 gpio_holdover[26] 7.21935 
*END

*D_NET *372 0.401835
*CONN
*P gpio_holdover[27] O
*I *874:gpio_holdover[27] O *D counter_gpio_config_example
*CAP
1 gpio_holdover[27] 0.00259031
2 *874:gpio_holdover[27] 0.00187563
3 *372:29 0.0490388
4 *372:27 0.0464485
5 *372:25 0.0820601
6 *372:23 0.0843433
7 *372:13 0.00940712
8 *372:11 0.00899957
9 gpio_holdover[27] gpio_out[27] 0.000390247
10 gpio_holdover[27] *724:17 0
11 *372:11 *556:11 0.000167646
12 *372:13 *738:21 0
13 *372:23 *410:19 0.000670781
14 *372:23 *545:18 2.73523e-05
15 *372:23 *705:35 2.46153e-05
16 *372:25 *545:18 0.0101402
17 *372:29 *724:17 0
18 gpio_analog_sel[27] gpio_holdover[27] 0
19 gpio_analog_sel[27] *372:29 0
20 gpio_dm2[27] gpio_holdover[27] 0
21 *103:13 *372:13 0.0105879
22 *110:6 *372:23 0.000453691
23 *110:6 *372:25 0.0632577
24 *176:13 *372:23 8.52114e-05
25 *205:17 *372:23 0.00292446
26 *237:9 *372:25 0.00321452
27 *238:13 *372:13 0.0200715
28 *239:11 *372:11 0.000451506
29 *318:9 *372:11 0
30 *330:13 *372:13 0.00460398
*RES
1 *874:gpio_holdover[27] *372:11 8.3732 
2 *372:11 *372:13 309.768 
3 *372:13 *372:23 13.1039 
4 *372:23 *372:25 322.313 
5 *372:25 *372:27 3.41 
6 *372:27 *372:29 119.534 
7 *372:29 gpio_holdover[27] 5.98075 
*END

*D_NET *373 0.375496
*CONN
*P gpio_holdover[28] O
*I *874:gpio_holdover[28] O *D counter_gpio_config_example
*CAP
1 gpio_holdover[28] 0.0043756
2 *874:gpio_holdover[28] 0.00646252
3 *373:17 0.0665706
4 *373:15 0.0624927
5 *373:9 0.0276902
6 *373:7 0.033855
7 *373:7 gpio_oeb[37] 0.00251728
8 *373:7 *434:7 4.98092e-05
9 *373:15 *467:15 0
10 *373:17 *413:17 0
11 gpio_analog_sel[28] gpio_holdover[28] 0
12 gpio_dm0[33] *373:15 0
13 gpio_dm1[33] *373:15 0.000387841
14 gpio_dm2[28] gpio_holdover[28] 0.00783156
15 *107:7 *373:7 0
16 *242:9 *373:17 0.0329627
17 *280:9 *373:17 0.0214172
18 *289:9 *373:17 0.00690165
19 *307:17 *373:9 0.0560414
20 *314:7 *373:7 0.000920857
21 *354:17 *373:9 0.00480555
22 *366:9 *373:17 0.0402138
*RES
1 *874:gpio_holdover[28] *373:7 19.9728 
2 *373:7 *373:9 812.482 
3 *373:9 *373:15 7.76783 
4 *373:15 *373:17 230.479 
5 *373:17 gpio_holdover[28] 17.6032 
*END

*D_NET *374 0.522009
*CONN
*P gpio_holdover[29] O
*I *874:gpio_holdover[29] O *D counter_gpio_config_example
*CAP
1 gpio_holdover[29] 0.00890801
2 *874:gpio_holdover[29] 0.00447144
3 *374:9 0.0764387
4 *374:7 0.0720021
5 gpio_holdover[29] gpio_out[29] 0.000161877
6 gpio_holdover[29] gpio_vtrip_sel[29] 0
7 *374:7 *537:7 0
8 *374:9 *418:9 0
9 *374:9 *440:9 0.0611826
10 gpio_dm2[29] gpio_holdover[29] 0.000652243
11 *107:9 *374:9 0.158628
12 *162:9 *374:9 0.0281926
13 *178:15 *374:9 0.0083285
14 *178:17 *374:9 0.0239513
15 *193:9 *374:9 0.00142551
16 *229:7 *374:7 0.000159028
17 *241:19 *374:9 0.0311691
18 *268:17 *374:9 0.0208075
19 *284:9 *374:9 0.000749693
20 *304:9 *374:9 0.0118179
21 *327:7 *374:7 0.00103244
22 *330:33 gpio_holdover[29] 8.36199e-06
23 *333:9 *374:9 0.011922
*RES
1 *874:gpio_holdover[29] *374:7 14.6759 
2 *374:7 *374:9 360.13 
3 *374:9 gpio_holdover[29] 24.7848 
*END

*D_NET *375 0.545851
*CONN
*P gpio_holdover[2] O
*I *874:gpio_holdover[2] O *D counter_gpio_config_example
*CAP
1 gpio_holdover[2] 0.002391
2 *874:gpio_holdover[2] 0.0580165
3 *375:19 0.0899332
4 *375:17 0.100674
5 *375:13 0.0711481
6 gpio_holdover[2] gpio_out[2] 0.000261763
7 gpio_holdover[2] *727:29 0.000934566
8 *375:17 *400:13 0
9 *375:17 *540:13 0
10 *375:17 *717:13 0.00156915
11 *375:19 *727:29 0.210697
12 gpio_dm2[2] gpio_holdover[2] 0.00194068
13 gpio_dm2[2] *375:19 0
14 *126:11 *375:13 0.000102188
15 *222:9 *375:13 0.00185637
16 *252:40 *375:13 0.000112686
17 *298:16 *375:13 0.00621352
*RES
1 *874:gpio_holdover[2] *375:13 18.1678 
2 *375:13 *375:17 37.6542 
3 *375:17 *375:19 339.049 
4 *375:19 gpio_holdover[2] 6.96932 
*END

*D_NET *376 0.407326
*CONN
*P gpio_holdover[30] O
*I *874:gpio_holdover[30] O *D counter_gpio_config_example
*CAP
1 gpio_holdover[30] 0.00132063
2 *874:gpio_holdover[30] 0.00249071
3 *376:17 0.0484615
4 *376:15 0.0471409
5 *376:13 0.0595127
6 *376:11 0.0620034
7 gpio_holdover[30] gpio_out[30] 0.000498978
8 gpio_holdover[30] *462:15 0.000201194
9 *376:11 *683:17 0.000458223
10 *376:17 gpio_out[30] 0.0179009
11 gpio_dm2[30] gpio_holdover[30] 0
12 *128:17 *376:13 0.0334679
13 *177:11 *376:11 0.000840194
14 *239:13 *376:13 0.000285653
15 *239:21 *376:13 0.118857
16 *243:15 *376:13 0.00629421
17 *281:13 *376:13 0.000559667
18 *286:13 *376:13 0
19 *312:7 *376:11 5.41024e-05
20 *312:9 *376:11 0.00069992
21 *357:17 *376:13 0.00627841
*RES
1 *874:gpio_holdover[30] *376:11 11.6522 
2 *376:11 *376:13 287.687 
3 *376:13 *376:15 3.41 
4 *376:15 *376:17 130.524 
5 *376:17 gpio_holdover[30] 12.4701 
*END

*D_NET *377 0.362102
*CONN
*P gpio_holdover[31] O
*I *874:gpio_holdover[31] O *D counter_gpio_config_example
*CAP
1 gpio_holdover[31] 0.00898297
2 *874:gpio_holdover[31] 0.00230672
3 *377:17 0.047113
4 *377:15 0.0382532
5 *377:9 0.0123175
6 *377:7 0.014501
7 gpio_holdover[31] gpio_out[31] 0.000174006
8 *377:7 *417:7 0.000566304
9 *377:9 *471:11 0.0147631
10 *377:15 *822:8 7.79859e-05
11 gpio_analog_en[35] *377:17 0.000365949
12 gpio_dm2[31] gpio_holdover[31] 0.0100541
13 *105:17 *377:17 0
14 *115:9 *377:9 0.00865325
15 *115:9 *377:17 0.00890944
16 *123:9 *377:9 0
17 *154:9 *377:9 0.0359371
18 *154:17 *377:17 0.0870845
19 *174:9 *377:17 5.4395e-05
20 *204:9 *377:9 0.00225987
21 *204:9 *377:17 0.0101285
22 *205:17 *377:15 0.000262786
23 *241:17 gpio_holdover[31] 4.95924e-05
24 *283:9 *377:9 0.0587823
25 *309:9 *377:9 0.000468459
26 *342:19 *377:7 3.61363e-05
27 *354:15 *377:7 0
*RES
1 *874:gpio_holdover[31] *377:7 9.379 
2 *377:7 *377:9 774.232 
3 *377:9 *377:15 7.26337 
4 *377:15 *377:17 188.185 
5 *377:17 gpio_holdover[31] 28.9208 
*END

*D_NET *378 0.350134
*CONN
*P gpio_holdover[32] O
*I *874:gpio_holdover[32] O *D counter_gpio_config_example
*CAP
1 gpio_holdover[32] 0.00551288
2 *874:gpio_holdover[32] 0.000496089
3 *378:25 0.0514182
4 *378:23 0.0459053
5 *378:21 0.0223303
6 *378:19 0.0250447
7 *378:13 0.0274533
8 *378:11 0.0252351
9 gpio_holdover[32] gpio_out[32] 0
10 gpio_holdover[32] *413:17 0.000432872
11 *378:11 *555:11 0.00014705
12 *378:13 *422:13 0.00144616
13 *378:13 *463:11 0.000106304
14 *378:13 *546:13 0.00100119
15 *378:13 *556:13 0.00394795
16 *378:19 *556:13 0.000340813
17 *378:21 *422:13 0.00864053
18 *378:21 *546:13 0.0168361
19 *378:21 *549:13 0.00619943
20 *160:17 *378:13 0
21 *160:17 *378:19 0.000172063
22 *176:11 *378:21 0.000336751
23 *275:7 *378:11 4.51034e-05
24 *275:9 *378:11 0.000106827
25 *334:13 *378:19 0.000373541
26 *334:13 *378:21 0.0496226
27 *334:17 gpio_holdover[32] 0.00159143
28 *334:17 *378:25 0
29 *335:13 *378:13 0.0010283
30 *361:9 gpio_holdover[32] 0.000110051
31 *368:13 *378:13 0.00894318
32 *368:39 *378:13 0.00882311
33 *368:39 *378:19 0.000861062
34 *368:55 *378:19 0.00173398
35 *368:55 *378:21 0.00726049
36 *368:57 *378:21 0.0203204
37 *370:13 *378:19 0.000111243
38 *370:13 *378:21 0.00619943
*RES
1 *874:gpio_holdover[32] *378:11 5.0221 
2 *378:11 *378:13 58.7625 
3 *378:13 *378:19 7.99627 
4 *378:19 *378:21 107.094 
5 *378:21 *378:23 3.41 
6 *378:23 *378:25 113.696 
7 *378:25 gpio_holdover[32] 13.9927 
*END

*D_NET *379 0.198365
*CONN
*P gpio_holdover[33] O
*I *874:gpio_holdover[33] O *D counter_gpio_config_example
*CAP
1 gpio_holdover[33] 0.00662018
2 *874:gpio_holdover[33] 0.00602136
3 *379:13 0.0377287
4 *379:11 0.0371299
5 gpio_holdover[33] gpio_out[33] 0.00501207
6 gpio_holdover[33] *462:15 0.000103722
7 *379:11 *396:15 4.8817e-05
8 *379:11 *421:7 0.000774983
9 *379:13 *396:15 6.40846e-05
10 *379:13 *396:17 0.0134496
11 gpio_analog_sel[33] gpio_holdover[33] 0
12 gpio_dm2[33] gpio_holdover[33] 0
13 *150:9 *379:13 0
14 *152:9 *379:13 0.0192067
15 *152:15 gpio_holdover[33] 0
16 *201:9 *379:13 0.0586302
17 *203:17 gpio_holdover[33] 0
18 *220:17 *379:13 0.0121583
19 *316:9 *379:11 0
20 *335:17 gpio_holdover[33] 0.0013988
21 *350:13 *379:11 0
22 *352:15 *379:11 1.73824e-05
*RES
1 *874:gpio_holdover[33] *379:11 17.0384 
2 *379:11 *379:13 125.65 
3 *379:13 gpio_holdover[33] 30.0771 
*END

*D_NET *380 0.127353
*CONN
*P gpio_holdover[34] O
*I *874:gpio_holdover[34] O *D counter_gpio_config_example
*CAP
1 gpio_holdover[34] 8.32847e-05
2 *874:gpio_holdover[34] 0.00115865
3 *380:17 0.0477345
4 *380:15 0.0476512
5 *380:13 0.0059777
6 *380:11 0.00713635
7 *380:11 *410:13 0.000186919
8 *380:13 *562:13 0
9 *380:17 gpio_out[34] 0
10 *380:17 *535:13 0
11 *380:17 *773:11 0.00148108
12 *380:17 *788:9 0.00537843
13 gpio_analog_sel[34] *380:17 0
14 gpio_dm2[34] *380:17 0.00164478
15 *146:13 *380:13 0.00363926
16 *283:15 *380:17 0
17 *292:13 *380:13 0.00509868
18 *321:11 *380:11 0.000182555
*RES
1 *874:gpio_holdover[34] *380:11 6.2112 
2 *380:11 *380:13 162.839 
3 *380:13 *380:15 3.41 
4 *380:15 *380:17 127.834 
5 *380:17 gpio_holdover[34] 0.27965 
*END

*D_NET *381 0.195407
*CONN
*P gpio_holdover[35] O
*I *874:gpio_holdover[35] O *D counter_gpio_config_example
*CAP
1 gpio_holdover[35] 0.00028517
2 *874:gpio_holdover[35] 0.000785205
3 *381:21 0.00185477
4 *381:19 0.0015696
5 *381:17 0.0321567
6 *381:15 0.0321567
7 *381:13 0.00449045
8 *381:11 0.00527566
9 gpio_holdover[35] gpio_out[35] 0.000240928
10 *381:13 *556:13 0.000891208
11 *381:13 *557:13 0.00236842
12 *381:17 *391:19 4.65519e-05
13 *381:17 *427:17 0.00425495
14 *381:17 *542:17 0.00033388
15 *381:17 *742:9 0.0077665
16 *381:17 *829:16 0.000388792
17 *381:21 *425:21 0.00632505
18 *381:21 *427:21 1.69252e-05
19 *381:21 *726:21 0
20 gpio_dm2[35] gpio_holdover[35] 0
21 *89:7 *381:11 3.64239e-05
22 *89:9 *381:11 0.000138702
23 *104:27 *381:17 0.000330472
24 *113:13 *381:13 0
25 *117:17 *381:17 0.0342793
26 *154:15 *381:17 0.000158531
27 *190:23 *381:17 0.00960966
28 *215:33 *381:17 0.00369703
29 *290:13 *381:13 0.0220663
30 *293:13 *381:13 0.0174545
31 *297:7 *381:11 3.84969e-05
32 *297:9 *381:11 0.000106049
33 *337:21 *381:21 0.0061287
34 *338:17 *381:17 5.99199e-06
35 *338:21 *381:21 0.000149197
*RES
1 *874:gpio_holdover[35] *381:11 5.49053 
2 *381:11 *381:13 275.161 
3 *381:13 *381:15 3.41 
4 *381:15 *381:17 126.38 
5 *381:17 *381:19 3.41 
6 *381:19 *381:21 85.125 
7 *381:21 gpio_holdover[35] 4.1902 
*END

*D_NET *382 0.0884534
*CONN
*P gpio_holdover[36] O
*I *874:gpio_holdover[36] O *D counter_gpio_config_example
*CAP
1 gpio_holdover[36] 0.00176051
2 *874:gpio_holdover[36] 0.00418264
3 *382:24 1.52569e-06
4 *382:15 0.00951542
5 *382:9 0.0311234
6 *382:7 0.0275496
7 gpio_holdover[36] gpio_out[36] 0.000526052
8 gpio_holdover[36] *427:21 0.00355527
9 gpio_holdover[36] *726:21 0
10 *382:7 *383:7 0.00138867
11 *382:7 *417:7 0.00142
12 *382:9 *383:9 0.00401292
13 *382:9 *396:17 0
14 *382:24 gpio_out[36] 3.05874e-05
15 gpio_dm2[36] gpio_holdover[36] 7.8134e-05
16 *220:17 *382:9 0
17 *272:9 *382:9 0
18 *288:9 *382:9 0.00330855
19 *306:9 *382:9 0
*RES
1 *874:gpio_holdover[36] *382:7 17.0901 
2 *382:7 *382:9 468.839 
3 *382:9 *382:15 23.8027 
4 *382:15 gpio_holdover[36] 48.7808 
5 gpio_holdover[36] *382:24 0.0626667 
*END

*D_NET *383 0.0914564
*CONN
*P gpio_holdover[37] O
*I *874:gpio_holdover[37] O *D counter_gpio_config_example
*CAP
1 gpio_holdover[37] 0.00636243
2 *874:gpio_holdover[37] 0.00479773
3 *383:9 0.0199233
4 *383:7 0.0183586
5 gpio_holdover[37] gpio_out[37] 0.0085036
6 gpio_dm2[37] gpio_holdover[37] 7.2778e-05
7 *150:9 *383:9 0
8 *155:7 *383:7 0.000126087
9 *201:9 *383:9 0.00636119
10 *220:9 *383:9 0.0202559
11 *220:17 *383:9 0.00107094
12 *288:9 *383:9 0.000222326
13 *328:7 *383:7 0
14 *382:7 *383:7 0.00138867
15 *382:9 *383:9 0.00401292
*RES
1 *874:gpio_holdover[37] *383:7 16.8379 
2 *383:7 *383:9 56.4031 
3 *383:9 gpio_holdover[37] 22.0087 
*END

*D_NET *384 0.192441
*CONN
*P gpio_holdover[38] O
*I *874:gpio_holdover[38] O *D counter_gpio_config_example
*CAP
1 gpio_holdover[38] 0.000119195
2 *874:gpio_holdover[38] 0.000524153
3 *384:21 0.00390761
4 *384:19 0.00497791
5 *384:13 0.0328956
6 *384:11 0.0317061
7 *384:9 0.0131144
8 *384:7 0.0136385
9 *384:9 *434:9 0
10 *384:9 *461:21 1.8038e-05
11 *384:13 *475:11 0.00758146
12 *384:13 *560:15 0
13 *384:21 gpio_out[38] 0
14 gpio_dm2[38] *384:21 0
15 *155:9 *384:9 0.0015311
16 *164:9 *384:9 0.013948
17 *208:40 *384:19 0.00275092
18 *208:40 *384:21 0
19 *212:9 *384:9 0.00204598
20 *219:7 *384:7 0.000107134
21 *223:9 *384:9 0.0413397
22 *228:9 *384:9 0.00742587
23 *260:7 *384:7 0.000137248
24 *264:9 *384:9 0.0146724
25 *302:9 *384:9 0
*RES
1 *874:gpio_holdover[38] *384:7 4.8388 
2 *384:7 *384:9 643.089 
3 *384:9 *384:11 3.41 
4 *384:11 *384:13 91.0672 
5 *384:13 *384:19 39.9636 
6 *384:19 *384:21 73.9286 
7 *384:21 gpio_holdover[38] 2.50893 
*END

*D_NET *385 0.14794
*CONN
*P gpio_holdover[39] O
*I *874:gpio_holdover[39] O *D counter_gpio_config_example
*CAP
1 gpio_holdover[39] 0.00126021
2 *874:gpio_holdover[39] 0.0001568
3 *385:13 0.0176797
4 *385:11 0.0164194
5 *385:9 0.0284992
6 *385:7 0.028656
7 gpio_holdover[39] *737:17 0
8 *385:7 *546:11 4.45405e-05
9 *385:9 *546:11 9.97228e-05
10 *385:13 *737:13 0.00520336
11 *385:13 *737:17 0
12 *170:17 *385:9 0
13 *221:11 *385:7 4.95181e-05
14 *221:11 *385:9 0.00357932
15 *341:13 gpio_holdover[39] 0.00131098
16 *341:13 *385:13 0.0449811
*RES
1 *874:gpio_holdover[39] *385:7 0.556167 
2 *385:7 *385:9 81.0139 
3 *385:9 *385:11 3.41 
4 *385:11 *385:13 556.125 
5 *385:13 gpio_holdover[39] 33.6161 
*END

*D_NET *386 0.317035
*CONN
*P gpio_holdover[3] O
*I *874:gpio_holdover[3] O *D counter_gpio_config_example
*CAP
1 gpio_holdover[3] 0.0108894
2 *874:gpio_holdover[3] 0.000182351
3 *386:9 0.147035
4 *386:7 0.136328
5 gpio_holdover[3] gpio_out[3] 0.000574739
6 gpio_holdover[3] *738:25 0.00548671
7 gpio_dm2[3] gpio_holdover[3] 0
8 *181:9 *386:9 0
9 *231:7 *386:7 0
10 *231:9 *386:9 0
11 *277:11 *386:7 3.6865e-05
12 *277:11 *386:9 0.00264546
13 *331:13 gpio_holdover[3] 0.0138572
*RES
1 *874:gpio_holdover[3] *386:7 0.556167 
2 *386:7 *386:9 358.362 
3 *386:9 gpio_holdover[3] 48.7824 
*END

*D_NET *387 0.154517
*CONN
*P gpio_holdover[40] O
*I *874:gpio_holdover[40] O *D counter_gpio_config_example
*CAP
1 gpio_holdover[40] 6.23546e-05
2 *874:gpio_holdover[40] 0.000159751
3 *387:13 0.0299555
4 *387:11 0.0298931
5 *387:9 0.0375989
6 *387:7 0.0377587
7 *387:13 gpio_out[40] 0
8 gpio_dm2[40] *387:13 0
9 *287:7 *387:7 3.53138e-05
10 *287:9 *387:7 5.05304e-06
11 *287:9 *387:9 0.005069
12 *348:7 *387:7 4.51034e-05
13 *348:7 *387:9 6.90276e-06
14 *348:9 *387:9 0.0139276
*RES
1 *874:gpio_holdover[40] *387:7 0.556167 
2 *387:7 *387:9 124.182 
3 *387:9 *387:11 3.41 
4 *387:11 *387:13 605.018 
5 *387:13 gpio_holdover[40] 1.3125 
*END

*D_NET *388 0.273317
*CONN
*P gpio_holdover[41] O
*I *874:gpio_holdover[41] O *D counter_gpio_config_example
*CAP
1 gpio_holdover[41] 0.000114105
2 *874:gpio_holdover[41] 0.0066862
3 *388:25 0.00388797
4 *388:23 0.00392302
5 *388:21 0.00517077
6 *388:19 0.00502162
7 *388:17 0.0431171
8 *388:15 0.0431171
9 *388:13 0.0420069
10 *388:11 0.0486931
11 *388:11 *539:7 3.0855e-05
12 *388:11 *539:9 0.00141841
13 *388:13 *398:13 0.00106087
14 *388:17 *477:11 0
15 *388:17 *695:14 0.0676197
16 *388:25 *740:22 0
17 gpio_dm2[41] *388:25 0
18 *308:7 *388:11 3.42149e-05
19 *308:9 *388:11 0.00141505
*RES
1 *874:gpio_holdover[41] *388:11 21.6335 
2 *388:11 *388:13 845.268 
3 *388:13 *388:15 3.41 
4 *388:15 *388:17 148.793 
5 *388:17 *388:19 3.41 
6 *388:19 *388:21 101.964 
7 *388:21 *388:23 3 
8 *388:23 *388:25 73.9286 
9 *388:25 gpio_holdover[41] 2.40179 
*END

*D_NET *389 0.420678
*CONN
*P gpio_holdover[42] O
*I *874:gpio_holdover[42] O *D counter_gpio_config_example
*CAP
1 gpio_holdover[42] 0.000107318
2 *874:gpio_holdover[42] 0.000223332
3 *389:21 0.00385617
4 *389:19 0.00383754
5 *389:17 0.00586761
6 *389:15 0.00577892
7 *389:13 0.0729964
8 *389:11 0.0729964
9 *389:9 0.00473554
10 *389:7 0.00495887
11 *389:7 *391:7 4.17966e-05
12 *389:13 *564:10 0
13 *389:13 *711:19 0.0392284
14 *389:13 *714:19 0.000235586
15 *389:13 *715:9 0.0693098
16 *389:13 *717:9 0.0465411
17 *389:13 *756:9 0.054012
18 *389:13 *832:9 0
19 *389:13 *833:9 0.000332075
20 gpio_dm2[42] *389:21 0
21 *125:7 *389:7 4.17966e-05
22 *139:9 *389:9 0.00221459
23 *141:9 *389:9 0.00385754
24 *296:9 *389:9 0.0037498
25 *301:9 *389:9 0.00226425
26 *340:9 *389:9 0.00133333
27 *342:19 *389:9 0.000348495
28 *344:19 *389:9 0.0215998
29 *347:9 *389:9 0.000209944
*RES
1 *874:gpio_holdover[42] *389:7 3.974 
2 *389:7 *389:9 268.482 
3 *389:9 *389:11 3.41 
4 *389:11 *389:13 304.24 
5 *389:13 *389:15 3.41 
6 *389:15 *389:17 114.107 
7 *389:17 *389:19 1.76786 
8 *389:19 *389:21 73.9286 
9 *389:21 gpio_holdover[42] 2.25893 
*END

*D_NET *390 0.314996
*CONN
*P gpio_holdover[43] O
*I *874:gpio_holdover[43] O *D counter_gpio_config_example
*CAP
1 gpio_holdover[43] 0.000100531
2 *874:gpio_holdover[43] 0.00752166
3 *390:21 0.00581068
4 *390:19 0.00571015
5 *390:17 0.0785786
6 *390:15 0.0785786
7 *390:13 0.0377168
8 *390:11 0.0452385
9 *390:13 *409:13 0.00998832
10 *390:17 *475:11 0
11 gpio_dm2[43] *390:21 0
12 *130:13 *390:13 0.00709379
13 *187:13 *390:13 0.00416345
14 *213:11 *390:11 0.000997616
15 *213:17 *390:17 0
16 *253:17 *390:17 0.0318257
17 *257:7 *390:11 3.14194e-05
18 *257:9 *390:11 0.00164
19 *258:17 *390:17 0
20 *363:9 *390:11 0
*RES
1 *874:gpio_holdover[43] *390:11 23.9396 
2 *390:11 *390:13 846.482 
3 *390:13 *390:15 3.41 
4 *390:15 *390:17 232.894 
5 *390:17 *390:19 3.41 
6 *390:19 *390:21 113.839 
7 *390:21 gpio_holdover[43] 2.11607 
*END

*D_NET *391 0.584715
*CONN
*P gpio_holdover[4] O
*I *874:gpio_holdover[4] O *D counter_gpio_config_example
*CAP
1 gpio_holdover[4] 0.000319632
2 *874:gpio_holdover[4] 0.000322009
3 *391:21 0.0541358
4 *391:19 0.0538654
5 *391:9 0.0295391
6 *391:7 0.0298118
7 gpio_holdover[4] *743:17 0
8 *391:9 *434:9 0.000372626
9 *391:9 *532:19 0.00581028
10 *391:21 *427:17 0.00387824
11 gpio_analog_sel[4] gpio_holdover[4] 5.54655e-05
12 gpio_dm2[4] gpio_holdover[4] 4.98354e-05
13 *103:17 *391:21 0
14 *117:17 *391:19 4.65519e-05
15 *117:17 *391:21 0.000103646
16 *122:131 *391:9 0.000142608
17 *129:9 *391:9 0.000141362
18 *142:9 *391:9 0.00519413
19 *142:9 *391:19 6.91065e-05
20 *143:9 *391:9 0.00699688
21 *143:9 *391:19 6.58704e-05
22 *148:17 *391:21 0.0586977
23 *190:9 *391:9 0.00496044
24 *191:7 *391:7 5.23905e-05
25 *215:35 *391:21 0.131176
26 *234:17 *391:21 0.00665989
27 *266:15 *391:9 0.0153981
28 *302:9 *391:9 0.00041992
29 *344:19 *391:9 0.000519164
30 *347:9 *391:9 0.0531562
31 *347:21 *391:21 0.122667
32 *381:17 *391:19 4.65519e-05
33 *389:7 *391:7 4.17966e-05
*RES
1 *874:gpio_holdover[4] *391:7 4.15417 
2 *391:7 *391:9 115.849 
3 *391:9 *391:19 12.287 
4 *391:19 *391:21 2649.23 
5 *391:21 gpio_holdover[4] 10.8278 
*END

*D_NET *392 0.496199
*CONN
*P gpio_holdover[5] O
*I *874:gpio_holdover[5] O *D counter_gpio_config_example
*CAP
1 gpio_holdover[5] 0.00118457
2 *874:gpio_holdover[5] 0.00417301
3 *392:17 0.181765
4 *392:15 0.180581
5 *392:13 0.0456281
6 *392:11 0.0498011
7 gpio_holdover[5] gpio_out[5] 0.000257964
8 *392:11 *393:7 0.000360386
9 *392:11 *428:9 0
10 *392:11 *569:17 0.000286205
11 *392:13 *426:9 0.00321748
12 gpio_dm2[5] gpio_holdover[5] 0.00193824
13 gpio_dm2[5] *392:17 0.00302025
14 *93:17 *392:13 0.00262245
15 *105:7 *392:11 0
16 *127:9 *392:13 0.0158632
17 *133:9 *392:11 0.000850307
18 *133:9 *392:13 0.00464999
19 *216:17 *392:17 0
20 *244:9 *392:13 0
*RES
1 *874:gpio_holdover[5] *392:11 13.7704 
2 *392:11 *392:13 141.677 
3 *392:13 *392:15 3.41 
4 *392:15 *392:17 465.778 
5 *392:17 gpio_holdover[5] 11.7806 
*END

*D_NET *393 0.665834
*CONN
*P gpio_holdover[6] O
*I *874:gpio_holdover[6] O *D counter_gpio_config_example
*CAP
1 gpio_holdover[6] 9.6349e-05
2 *874:gpio_holdover[6] 0.0054237
3 *393:13 0.130957
4 *393:11 0.130861
5 *393:9 0.035718
6 *393:7 0.0411417
7 *393:7 *569:17 0
8 *393:9 *735:13 0
9 *393:13 gpio_out[6] 0.000791918
10 *393:13 *745:9 0.245228
11 gpio_dm2[6] *393:13 0.000533744
12 *161:7 *393:7 0
13 *217:13 *393:13 0
14 *219:9 *393:9 0.0615402
15 *272:7 *393:7 0.00125944
16 *306:9 *393:9 0.0119223
17 *349:13 *393:13 0
18 *392:11 *393:7 0.000360386
*RES
1 *874:gpio_holdover[6] *393:7 17.8108 
2 *393:7 *393:9 1047.45 
3 *393:9 *393:11 3.41 
4 *393:11 *393:13 479.013 
5 *393:13 gpio_holdover[6] 0.323517 
*END

*D_NET *394 0.576721
*CONN
*P gpio_holdover[7] O
*I *874:gpio_holdover[7] O *D counter_gpio_config_example
*CAP
1 gpio_holdover[7] 0.00279221
2 *874:gpio_holdover[7] 0.000163017
3 *394:17 0.0646543
4 *394:15 0.061862
5 *394:13 0.0987925
6 *394:11 0.0987925
7 *394:9 0.0360887
8 *394:7 0.0362517
9 gpio_holdover[7] gpio_out[7] 0
10 *394:7 *557:11 4.28713e-05
11 *394:9 *463:7 0.0167737
12 *394:9 *557:11 9.89363e-05
13 *394:17 gpio_out[7] 0
14 *312:13 *394:13 0
15 *345:7 *394:7 3.6865e-05
16 *345:7 *394:9 6.00628e-06
17 *345:9 *394:9 0.0111296
18 *350:19 gpio_holdover[7] 0.00115313
19 *350:19 *394:17 0.148083
*RES
1 *874:gpio_holdover[7] *394:7 0.556167 
2 *394:7 *394:9 125.731 
3 *394:9 *394:11 3.41 
4 *394:11 *394:13 288.22 
5 *394:13 *394:15 3.41 
6 *394:15 *394:17 238.444 
7 *394:17 gpio_holdover[7] 7.11972 
*END

*D_NET *395 0.804054
*CONN
*P gpio_holdover[8] O
*I *874:gpio_holdover[8] O *D counter_gpio_config_example
*CAP
1 gpio_holdover[8] 0.000991163
2 *874:gpio_holdover[8] 0.00614416
3 *395:13 0.125247
4 *395:11 0.124255
5 *395:9 0.0575589
6 *395:7 0.063703
7 gpio_holdover[8] gpio_out[8] 0.000685924
8 *395:9 *823:10 0
9 *395:13 *747:9 0.270981
10 gpio_dm1[37] *395:7 0.000867058
11 gpio_dm2[8] gpio_holdover[8] 0.00194297
12 gpio_dm2[8] *395:13 1.81922e-05
13 *154:7 *395:7 0
14 *219:13 *395:13 0
15 *279:9 *395:9 0.150586
16 *333:7 *395:7 0.000923051
17 *360:7 *395:7 0.000150237
*RES
1 *874:gpio_holdover[8] *395:7 18.8197 
2 *395:7 *395:9 1854.34 
3 *395:9 *395:11 3.41 
4 *395:11 *395:13 476.84 
5 *395:13 gpio_holdover[8] 12.1371 
*END

*D_NET *396 0.775183
*CONN
*P gpio_holdover[9] O
*I *874:gpio_holdover[9] O *D counter_gpio_config_example
*CAP
1 gpio_holdover[9] 0.177178
2 *874:gpio_holdover[9] 0.00672463
3 *396:19 0.177178
4 *396:17 0.0510336
5 *396:15 0.0577583
6 gpio_holdover[9] *748:17 0.0390546
7 gpio_holdover[9] *836:17 0
8 *396:15 gpio_inp_dis[37] 0.000995808
9 gpio_dm2[9] gpio_holdover[9] 0
10 *150:9 *396:15 0.000245139
11 *151:7 *396:15 0.000514902
12 *152:9 *396:17 0.0503709
13 *152:17 *396:17 0.00677828
14 *201:9 *396:15 0.00115073
15 *201:9 *396:17 0.0245538
16 *220:17 *396:15 0.000397817
17 *220:17 *396:17 0.163163
18 *220:21 gpio_holdover[9] 0
19 *272:9 *396:17 0.000266715
20 *288:9 *396:17 0.00425673
21 *352:21 gpio_holdover[9] 0
22 *379:11 *396:15 4.8817e-05
23 *379:13 *396:15 6.40846e-05
24 *379:13 *396:17 0.0134496
25 *382:9 *396:17 0
*RES
1 *874:gpio_holdover[9] *396:15 28.4378 
2 *396:15 *396:17 2015.23 
3 *396:17 *396:19 3.41 
4 *396:19 gpio_holdover[9] 477.932 
*END

*D_NET *397 0.471909
*CONN
*P gpio_ib_mode_sel[0] O
*I *874:gpio_ib_mode_sel[0] O *D counter_gpio_config_example
*CAP
1 gpio_ib_mode_sel[0] 0.00262536
2 *874:gpio_ib_mode_sel[0] 0.000230237
3 *397:17 0.0693342
4 *397:15 0.0667088
5 *397:13 0.0433636
6 *397:11 0.0433636
7 *397:9 0.0345154
8 *397:7 0.0347457
9 gpio_ib_mode_sel[0] *661:29 0.00192245
10 gpio_ib_mode_sel[0] *793:19 0
11 *397:7 *423:11 3.0855e-05
12 *397:9 *423:11 0.000495486
13 *397:17 *661:29 0.174574
14 *397:17 *793:19 0
15 *113:11 *397:7 0
16 *113:11 *397:9 0
17 *346:17 *397:9 0
*RES
1 *874:gpio_ib_mode_sel[0] *397:7 0.556167 
2 *397:7 *397:9 87.8242 
3 *397:9 *397:11 3.41 
4 *397:11 *397:13 124.158 
5 *397:13 *397:15 3.41 
6 *397:15 *397:17 276.351 
7 *397:17 gpio_ib_mode_sel[0] 6.99282 
*END

*D_NET *398 0.660059
*CONN
*P gpio_ib_mode_sel[10] O
*I *874:gpio_ib_mode_sel[10] O *D counter_gpio_config_example
*CAP
1 gpio_ib_mode_sel[10] 4.92243e-05
2 *874:gpio_ib_mode_sel[10] 0.00701852
3 *398:17 0.0863184
4 *398:15 0.0862692
5 *398:13 0.124073
6 *398:11 0.131091
7 *398:11 *826:22 0.00109419
8 *398:13 *401:13 0
9 *398:17 gpio_oeb[10] 0.00194297
10 *398:17 *662:31 0.22069
11 *240:11 *398:11 0.000423004
12 *253:11 *398:11 0
13 *294:11 *398:11 2.85174e-05
14 *388:13 *398:13 0.00106087
*RES
1 *874:gpio_ib_mode_sel[10] *398:11 21.5974 
2 *398:11 *398:13 351.074 
3 *398:13 *398:15 3.41 
4 *398:15 *398:17 352.932 
5 *398:17 gpio_ib_mode_sel[10] 0.165283 
*END

*D_NET *399 0.57072
*CONN
*P gpio_ib_mode_sel[11] O
*I *874:gpio_ib_mode_sel[11] O *D counter_gpio_config_example
*CAP
1 gpio_ib_mode_sel[11] 0.00251132
2 *874:gpio_ib_mode_sel[11] 0.000167605
3 *399:19 0.0141108
4 *399:13 0.148745
5 *399:11 0.137146
6 *399:9 0.0944818
7 *399:7 0.0946495
8 gpio_ib_mode_sel[11] *663:13 0
9 gpio_ib_mode_sel[11] *795:9 0.00193339
10 *399:19 *663:13 0
11 *399:19 *795:9 0.0272013
12 *136:7 *399:7 4.31383e-05
13 *136:7 *399:9 5.66041e-06
14 *136:9 *399:9 0.0362345
15 *167:7 *399:7 4.31383e-05
16 *167:9 *399:7 5.66041e-06
17 *167:9 *399:9 0.013441
*RES
1 *874:gpio_ib_mode_sel[11] *399:7 0.556167 
2 *399:7 *399:9 320.311 
3 *399:9 *399:11 3.41 
4 *399:11 *399:13 403.276 
5 *399:13 *399:19 47.4271 
6 *399:19 gpio_ib_mode_sel[11] 6.83772 
*END

*D_NET *400 0.707025
*CONN
*P gpio_ib_mode_sel[12] O
*I *874:gpio_ib_mode_sel[12] O *D counter_gpio_config_example
*CAP
1 gpio_ib_mode_sel[12] 8.42179e-05
2 *874:gpio_ib_mode_sel[12] 0.00819502
3 *400:17 0.124098
4 *400:15 0.124014
5 *400:13 0.166685
6 *400:11 0.17488
7 *400:11 *533:11 0.00049432
8 *400:11 *771:19 0
9 *400:11 *771:21 0.00135845
10 *400:13 *436:13 0
11 *400:17 gpio_oeb[12] 0.000797317
12 *400:17 *664:32 0.0283212
13 *400:17 *796:17 0
14 *145:13 *400:13 0.0716334
15 *211:13 *400:13 0.00437599
16 *345:7 *400:11 3.6865e-05
17 *345:9 *400:11 0.00205181
18 *375:17 *400:13 0
*RES
1 *874:gpio_ib_mode_sel[12] *400:11 28.0834 
2 *400:11 *400:13 466.45 
3 *400:13 *400:15 3.41 
4 *400:15 *400:17 346.446 
5 *400:17 gpio_ib_mode_sel[12] 0.282783 
*END

*D_NET *401 0.801494
*CONN
*P gpio_ib_mode_sel[13] O
*I *874:gpio_ib_mode_sel[13] O *D counter_gpio_config_example
*CAP
1 gpio_ib_mode_sel[13] 0.00149761
2 *874:gpio_ib_mode_sel[13] 0.00679072
3 *401:17 0.102512
4 *401:15 0.101015
5 *401:13 0.167706
6 *401:11 0.174497
7 gpio_ib_mode_sel[13] *665:34 0.0002641
8 gpio_ib_mode_sel[13] *797:17 0.000395582
9 *401:17 gpio_out[13] 0
10 *401:17 *665:34 0
11 *401:17 *797:17 0.136127
12 *98:13 *401:13 0.106189
13 *100:7 *401:11 3.14194e-05
14 *100:9 *401:11 0.00152794
15 *130:13 *401:13 0
16 *258:13 *401:13 0.00138257
17 *356:7 *401:11 3.55467e-05
18 *356:9 *401:11 0.0015223
19 *398:13 *401:13 0
*RES
1 *874:gpio_ib_mode_sel[13] *401:11 22.6064 
2 *401:11 *401:13 486.691 
3 *401:13 *401:15 3.41 
4 *401:15 *401:17 348.742 
5 *401:17 gpio_ib_mode_sel[13] 13.5864 
*END

*D_NET *402 1.18587
*CONN
*P gpio_ib_mode_sel[14] O
*I *874:gpio_ib_mode_sel[14] O *D counter_gpio_config_example
*CAP
1 gpio_ib_mode_sel[14] 0.00112635
2 *874:gpio_ib_mode_sel[14] 0.00272371
3 *402:13 0.114783
4 *402:11 0.113657
5 *402:9 0.0635422
6 *402:7 0.066266
7 gpio_ib_mode_sel[14] gpio_oeb[14] 0.000493341
8 gpio_ib_mode_sel[14] gpio_vtrip_sel[14] 0.00198168
9 *402:7 *431:7 0.000312052
10 *402:9 *779:18 0.00567589
11 *402:13 *666:21 0.293359
12 gpio_analog_en[24] *402:13 0
13 *91:17 *402:9 0.16516
14 *99:9 *402:9 0.00106511
15 *105:17 *402:9 0.0635439
16 *115:9 *402:9 0.000106304
17 *123:9 *402:9 0.00490865
18 *189:9 *402:9 0.270675
19 *227:17 *402:13 0
20 *281:25 *402:13 0.00079651
21 *283:9 *402:9 0.0156991
22 *289:7 *402:7 0
23 *316:9 *402:7 0
*RES
1 *874:gpio_ib_mode_sel[14] *402:7 9.1628 
2 *402:7 *402:9 3416.52 
3 *402:9 *402:11 3.41 
4 *402:11 *402:13 467.111 
5 *402:13 gpio_ib_mode_sel[14] 12.3251 
*END

*D_NET *403 0.607484
*CONN
*P gpio_ib_mode_sel[15] O
*I *874:gpio_ib_mode_sel[15] O *D counter_gpio_config_example
*CAP
1 gpio_ib_mode_sel[15] 8.83825e-05
2 *874:gpio_ib_mode_sel[15] 0.000162739
3 *403:21 0.00547479
4 *403:19 0.00538641
5 *403:17 0.091164
6 *403:15 0.091164
7 *403:13 0.174759
8 *403:11 0.174759
9 *403:9 0.0284435
10 *403:7 0.0286063
11 gpio_ib_mode_sel[15] gpio_oeb[15] 0
12 gpio_ib_mode_sel[15] gpio_vtrip_sel[15] 0
13 *403:21 *667:13 0
14 *403:21 *799:13 0
15 *186:17 *403:17 0
16 *262:7 *403:7 3.6865e-05
17 *262:9 *403:7 6.00628e-06
18 *262:9 *403:9 0.00729817
19 *335:11 *403:7 3.05438e-05
20 *335:11 *403:9 0.000104582
*RES
1 *874:gpio_ib_mode_sel[15] *403:7 0.556167 
2 *403:7 *403:9 82.5273 
3 *403:9 *403:11 3.41 
4 *403:11 *403:13 3586.52 
5 *403:13 *403:15 3.41 
6 *403:15 *403:17 250.551 
7 *403:17 *403:19 3.41 
8 *403:19 *403:21 111.839 
9 *403:21 gpio_ib_mode_sel[15] 1.60714 
*END

*D_NET *404 0.911961
*CONN
*P gpio_ib_mode_sel[16] O
*I *874:gpio_ib_mode_sel[16] O *D counter_gpio_config_example
*CAP
1 gpio_ib_mode_sel[16] 0.00117089
2 *874:gpio_ib_mode_sel[16] 0.000275939
3 *404:19 0.181667
4 *404:17 0.180496
5 *404:15 0.0334288
6 *404:13 0.0334288
7 *404:11 0.00151244
8 *404:9 0.00178838
9 gpio_ib_mode_sel[16] gpio_oeb[16] 0
10 gpio_ib_mode_sel[16] gpio_vtrip_sel[16] 0
11 *404:11 *428:11 0.00187003
12 *404:15 *457:23 0.0215525
13 *404:15 *484:15 0.163922
14 *404:15 *669:9 0.145161
15 *404:19 *742:13 0.0740947
16 *133:13 *404:15 0.05205
17 *162:7 *404:9 0
18 *301:9 *404:11 0.0027555
19 *340:7 *404:9 0.000129672
20 *342:19 *404:11 0.000427427
21 *342:21 *404:15 0.0162302
*RES
1 *874:gpio_ib_mode_sel[16] *404:9 4.0868 
2 *404:9 *404:11 63.4196 
3 *404:11 *404:13 4.5 
4 *404:13 *404:15 1968.68 
5 *404:15 *404:17 4.5 
6 *404:17 *404:19 4042.79 
7 *404:19 gpio_ib_mode_sel[16] 31.875 
*END

*D_NET *405 0.518418
*CONN
*P gpio_ib_mode_sel[17] O
*I *874:gpio_ib_mode_sel[17] O *D counter_gpio_config_example
*CAP
1 gpio_ib_mode_sel[17] 0.180858
2 *874:gpio_ib_mode_sel[17] 0.000146344
3 *405:11 0.180858
4 *405:9 0.0781566
5 *405:7 0.078303
6 gpio_ib_mode_sel[17] gpio_oeb[17] 0
7 gpio_ib_mode_sel[17] gpio_vtrip_sel[17] 0
8 *405:9 *422:11 0
9 *160:15 *405:7 4.72078e-05
10 *160:15 *405:9 8.12865e-06
11 *256:9 *405:9 0
12 *343:11 *405:7 4.03322e-05
13 *343:11 *405:9 0
*RES
1 *874:gpio_ib_mode_sel[17] *405:7 0.556167 
2 *405:7 *405:9 212.968 
3 *405:9 *405:11 3.41 
4 *405:11 gpio_ib_mode_sel[17] 3714.56 
*END

*D_NET *406 0.724984
*CONN
*P gpio_ib_mode_sel[18] O
*I *874:gpio_ib_mode_sel[18] O *D counter_gpio_config_example
*CAP
1 gpio_ib_mode_sel[18] 0.150694
2 *874:gpio_ib_mode_sel[18] 0.00159368
3 *406:15 0.150694
4 *406:13 0.0602005
5 *406:11 0.0602005
6 *406:9 0.0137474
7 *406:7 0.0153411
8 gpio_ib_mode_sel[18] gpio_oeb[18] 0
9 gpio_ib_mode_sel[18] gpio_vtrip_sel[18] 0
10 *406:9 *407:9 0.0539854
11 *406:9 *411:9 0.0580877
12 *406:9 *431:9 0
13 *406:9 *569:21 0.00129992
14 *406:13 *537:13 0
15 *406:13 *687:11 0.00274267
16 *406:13 *770:11 0.00659564
17 *141:13 *406:13 0.149209
18 *228:7 *406:7 0
19 *268:15 *406:7 0.000345801
20 *324:15 *406:13 0.000246973
*RES
1 *874:gpio_ib_mode_sel[18] *406:7 7.28907 
2 *406:7 *406:9 757.232 
3 *406:9 *406:11 3.41 
4 *406:11 *406:13 241.254 
5 *406:13 *406:15 3.41 
6 *406:15 gpio_ib_mode_sel[18] 3100.13 
*END

*D_NET *407 0.569888
*CONN
*P gpio_ib_mode_sel[19] O
*I *874:gpio_ib_mode_sel[19] O *D counter_gpio_config_example
*CAP
1 gpio_ib_mode_sel[19] 0.150141
2 *874:gpio_ib_mode_sel[19] 0.00173509
3 *407:15 0.150141
4 *407:13 0.0625904
5 *407:11 0.0625904
6 *407:9 0.0115343
7 *407:7 0.0132694
8 gpio_ib_mode_sel[19] gpio_oeb[19] 0
9 gpio_ib_mode_sel[19] gpio_vtrip_sel[19] 0
10 gpio_ib_mode_sel[19] *715:13 0
11 *407:7 *664:16 0
12 *407:9 *431:9 0
13 *407:9 *536:9 0.0517578
14 *407:9 *537:9 0.00089689
15 *407:9 *569:21 0.000316523
16 *407:13 *537:13 0
17 *407:13 *722:11 0.0105974
18 *407:13 *772:11 0
19 *105:7 *407:7 0.000333036
20 *147:7 *407:7 0
21 *229:13 *407:13 0
22 *406:9 *407:9 0.0539854
*RES
1 *874:gpio_ib_mode_sel[19] *407:7 7.36113 
2 *407:7 *407:9 686.804 
3 *407:9 *407:11 3.41 
4 *407:11 *407:13 161.548 
5 *407:13 *407:15 3.41 
6 *407:15 gpio_ib_mode_sel[19] 3088.6 
*END

*D_NET *408 0.498471
*CONN
*P gpio_ib_mode_sel[1] O
*I *874:gpio_ib_mode_sel[1] O *D counter_gpio_config_example
*CAP
1 gpio_ib_mode_sel[1] 0.00310677
2 *874:gpio_ib_mode_sel[1] 0.00452506
3 *408:17 0.0942693
4 *408:15 0.0911625
5 *408:13 0.0394652
6 *408:11 0.0439902
7 gpio_ib_mode_sel[1] gpio_oeb[1] 0.00025903
8 gpio_ib_mode_sel[1] gpio_vtrip_sel[1] 0
9 gpio_ib_mode_sel[1] *672:17 0.000333716
10 *408:17 gpio_vtrip_sel[1] 0
11 *408:17 *672:17 0.219375
12 *94:13 *408:13 0
13 *145:11 *408:11 0.000992183
14 *258:11 *408:11 0.000992183
15 *310:11 *408:17 0
16 *310:13 *408:13 0
*RES
1 *874:gpio_ib_mode_sel[1] *408:11 15.1114 
2 *408:11 *408:13 95.3943 
3 *408:13 *408:15 3.41 
4 *408:15 *408:17 353.03 
5 *408:17 gpio_ib_mode_sel[1] 7.27482 
*END

*D_NET *409 0.559978
*CONN
*P gpio_ib_mode_sel[20] O
*I *874:gpio_ib_mode_sel[20] O *D counter_gpio_config_example
*CAP
1 gpio_ib_mode_sel[20] 0.00206355
2 *874:gpio_ib_mode_sel[20] 0.00801543
3 *409:13 0.114446
4 *409:11 0.120398
5 gpio_ib_mode_sel[20] gpio_oeb[20] 0
6 gpio_ib_mode_sel[20] gpio_vtrip_sel[20] 0
7 gpio_ib_mode_sel[20] *805:29 0
8 *130:13 *409:13 0.0408115
9 *158:9 *409:11 4.94988e-05
10 *187:13 *409:13 0.262712
11 *189:13 gpio_ib_mode_sel[20] 0
12 *237:7 *409:11 3.28247e-05
13 *273:9 *409:11 0
14 *276:11 *409:11 0.0014612
15 *355:9 *409:11 0
16 *390:13 *409:13 0.00998832
*RES
1 *874:gpio_ib_mode_sel[20] *409:11 23.7955 
2 *409:11 *409:13 3558.59 
3 *409:13 gpio_ib_mode_sel[20] 23.985 
*END

*D_NET *410 0.345028
*CONN
*P gpio_ib_mode_sel[21] O
*I *874:gpio_ib_mode_sel[21] O *D counter_gpio_config_example
*CAP
1 gpio_ib_mode_sel[21] 0.000116327
2 *874:gpio_ib_mode_sel[21] 0.00241023
3 *410:21 0.15409
4 *410:19 0.160328
5 *410:13 0.00876471
6 gpio_ib_mode_sel[21] gpio_oeb[21] 0
7 *410:13 *705:41 0.00327645
8 *410:19 *874:gpio_in[38] 0.00275678
9 *410:19 *553:16 0.001051
10 *410:19 *740:18 0.00144596
11 *410:19 *826:14 0.00263186
12 *410:21 gpio_vtrip_sel[21] 2.18302e-05
13 *410:21 *806:21 0
14 *117:13 *410:13 0.000165754
15 *176:11 *410:19 0
16 *176:13 *410:19 0.00156992
17 *205:17 *410:19 0.00198762
18 *216:7 *410:13 3.69206e-05
19 *216:9 *410:13 0.000240583
20 *321:11 *410:13 0
21 *367:17 *410:13 0.00327645
22 *372:23 *410:19 0.000670781
23 *380:11 *410:13 0.000186919
*RES
1 *874:gpio_ib_mode_sel[21] *410:13 48.312 
2 *410:13 *410:19 27.3339 
3 *410:19 *410:21 3154.84 
4 *410:21 gpio_ib_mode_sel[21] 11.1786 
*END

*D_NET *411 0.521532
*CONN
*P gpio_ib_mode_sel[22] O
*I *874:gpio_ib_mode_sel[22] O *D counter_gpio_config_example
*CAP
1 gpio_ib_mode_sel[22] 0.152481
2 *874:gpio_ib_mode_sel[22] 0.00129159
3 *411:15 0.163722
4 *411:9 0.0313577
5 *411:7 0.0214081
6 gpio_ib_mode_sel[22] gpio_oeb[22] 0
7 gpio_ib_mode_sel[22] gpio_vtrip_sel[22] 0
8 gpio_ib_mode_sel[22] *688:21 0
9 gpio_ib_mode_sel[22] *773:5 0
10 gpio_ib_mode_sel[22] *817:21 0.014204
11 *411:7 *439:7 0.000326641
12 *411:7 *666:15 0.0002392
13 *411:9 *431:9 0
14 *411:9 *438:9 0.00105359
15 *411:9 *439:9 0
16 *411:9 *569:21 0.0520811
17 *411:15 *553:18 0.0249235
18 *102:7 *411:7 0.00035524
19 *290:17 *411:15 0
20 *406:9 *411:9 0.0580877
*RES
1 *874:gpio_ib_mode_sel[22] *411:7 7.217 
2 *411:7 *411:9 872.589 
3 *411:9 *411:15 47.2964 
4 *411:15 gpio_ib_mode_sel[22] 3130.49 
*END

*D_NET *412 0.466618
*CONN
*P gpio_ib_mode_sel[23] O
*I *874:gpio_ib_mode_sel[23] O *D counter_gpio_config_example
*CAP
1 gpio_ib_mode_sel[23] 0.00226028
2 *874:gpio_ib_mode_sel[23] 0.00171966
3 *412:9 0.114345
4 *412:7 0.113805
5 gpio_ib_mode_sel[23] gpio_oeb[23] 0
6 gpio_ib_mode_sel[23] gpio_vtrip_sel[23] 0
7 *412:7 *565:7 0.000252581
8 *412:9 *438:9 0.123311
9 *412:9 *439:9 0.00870477
10 *412:9 *569:21 0.0576762
11 *412:9 *666:17 0.0444953
12 *412:9 *808:13 0
13 *190:7 *412:7 4.82399e-05
14 *329:7 *412:7 0
*RES
1 *874:gpio_ib_mode_sel[23] *412:7 7.07287 
2 *412:7 *412:9 3436 
3 *412:9 gpio_ib_mode_sel[23] 42.9732 
*END

*D_NET *413 0.639824
*CONN
*P gpio_ib_mode_sel[24] O
*I *874:gpio_ib_mode_sel[24] O *D counter_gpio_config_example
*CAP
1 gpio_ib_mode_sel[24] 0.00387207
2 *874:gpio_ib_mode_sel[24] 0.00675664
3 *413:17 0.159495
4 *413:15 0.155882
5 *413:9 0.00776543
6 *413:7 0.0142635
7 gpio_ib_mode_sel[24] gpio_oeb[24] 0
8 gpio_ib_mode_sel[24] gpio_vtrip_sel[24] 0.00172768
9 gpio_ib_mode_sel[24] *721:17 0
10 gpio_ib_mode_sel[24] *809:17 0.00633594
11 *413:17 gpio_vtrip_sel[30] 0.000365668
12 *413:17 *810:21 0.0100011
13 *413:17 *812:19 0.000365668
14 gpio_analog_en[26] *413:17 0.000365668
15 gpio_analog_en[32] *413:17 0.000365668
16 gpio_analog_pol[30] *413:17 0.000365668
17 gpio_analog_pol[35] *413:15 0.000472925
18 gpio_dm0[28] *413:17 0.000298464
19 gpio_dm0[34] *413:17 0.000298464
20 gpio_dm0[35] *413:15 3.31396e-05
21 gpio_holdover[32] *413:17 0.000432872
22 *157:9 *413:9 0.00637006
23 *157:17 *413:17 0.0940827
24 *159:9 *413:17 0.00599584
25 *161:9 *413:9 0.00979064
26 *202:9 *413:17 0.00160462
27 *285:9 *413:17 0
28 *289:9 *413:17 0.000279064
29 *336:7 *413:7 0.001539
30 *336:9 *413:17 0.00740514
31 *361:7 *413:7 0.001539
32 *361:9 *413:17 0.0608045
33 *365:9 *413:17 0.0574801
34 *366:9 *413:9 0.0234697
35 *373:17 *413:17 0
*RES
1 *874:gpio_ib_mode_sel[24] *413:7 21.0538 
2 *413:7 *413:9 289.125 
3 *413:9 *413:15 7.69577 
4 *413:15 *413:17 531.755 
5 *413:17 gpio_ib_mode_sel[24] 16.6052 
*END

*D_NET *414 0.374478
*CONN
*P gpio_ib_mode_sel[25] O
*I *874:gpio_ib_mode_sel[25] O *D counter_gpio_config_example
*CAP
1 gpio_ib_mode_sel[25] 0.0058891
2 *874:gpio_ib_mode_sel[25] 0.00708565
3 *414:9 0.134944
4 *414:7 0.136141
5 gpio_ib_mode_sel[25] gpio_oeb[25] 0
6 gpio_ib_mode_sel[25] gpio_vtrip_sel[25] 0.000193663
7 gpio_ib_mode_sel[25] *546:21 0
8 *414:7 *438:7 0
9 *414:7 *663:7 0.000222144
10 *414:9 *464:11 0.0483594
11 *414:9 *538:9 0
12 *202:9 *414:9 0.00163557
13 *285:9 *414:9 0.0381901
14 *361:9 *414:9 0
15 *365:7 *414:7 0.00181723
16 *365:9 *414:9 0
*RES
1 *874:gpio_ib_mode_sel[25] *414:7 22.4951 
2 *414:7 *414:9 2870.09 
3 *414:9 gpio_ib_mode_sel[25] 32.2397 
*END

*D_NET *415 0.559897
*CONN
*P gpio_ib_mode_sel[26] O
*I *874:gpio_ib_mode_sel[26] O *D counter_gpio_config_example
*CAP
1 gpio_ib_mode_sel[26] 0.00259171
2 *874:gpio_ib_mode_sel[26] 0.00228286
3 *415:17 0.0459489
4 *415:15 0.0433572
5 *415:13 0.0535818
6 *415:11 0.0558647
7 gpio_ib_mode_sel[26] gpio_oeb[26] 0.000390247
8 gpio_ib_mode_sel[26] *811:17 0
9 *415:13 *531:13 0.0305093
10 *415:13 *533:13 0.000989479
11 *415:17 *663:13 0
12 *415:17 *795:9 0.0297565
13 *415:17 *811:17 0
14 *100:7 *415:11 4.68544e-05
15 *100:9 *415:11 0.000452733
16 *148:13 *415:13 0.00098706
17 *149:13 *415:13 0.000532962
18 *149:21 *415:13 0.122763
19 *156:13 *415:13 0.115231
20 *188:7 *415:11 4.1194e-05
21 *188:9 *415:11 0.000462089
22 *205:13 *415:13 0.00047516
23 *246:27 *415:13 0.000699323
24 *246:35 *415:13 0.00886938
25 *246:37 *415:13 0.0437494
26 *246:51 *415:13 4.12344e-05
27 *282:13 *415:13 0.000154703
28 *326:21 *415:13 0
29 *330:21 *415:13 0.000118311
*RES
1 *874:gpio_ib_mode_sel[26] *415:11 9.3461 
2 *415:11 *415:13 383.034 
3 *415:13 *415:15 3.41 
4 *415:15 *415:17 125.587 
5 *415:17 gpio_ib_mode_sel[26] 6.01522 
*END

*D_NET *416 0.425381
*CONN
*P gpio_ib_mode_sel[27] O
*I *874:gpio_ib_mode_sel[27] O *D counter_gpio_config_example
*CAP
1 gpio_ib_mode_sel[27] 0.00285288
2 *874:gpio_ib_mode_sel[27] 0.0105474
3 *416:25 0.106704
4 *416:23 0.11459
5 *416:7 0.0212862
6 gpio_ib_mode_sel[27] gpio_oeb[27] 0.000669435
7 gpio_ib_mode_sel[27] gpio_vtrip_sel[27] 0.000593504
8 gpio_ib_mode_sel[27] *680:17 0
9 *416:7 *552:7 0
10 *416:23 *424:9 0.00196755
11 *416:23 *424:35 0.00542678
12 *416:23 *424:37 0.00108331
13 *416:23 *819:13 0.00627662
14 *416:25 *417:17 0.125523
15 *416:25 *424:37 0.0128871
16 *416:25 *550:9 0
17 *416:25 *819:13 0.0138699
18 gpio_dm0[36] *416:23 4.71923e-05
19 gpio_dm1[36] *416:23 0
20 *127:7 *416:7 0.000371696
21 *173:7 *416:7 0.000684174
*RES
1 *874:gpio_ib_mode_sel[27] *416:7 27.792 
2 *416:7 *416:23 38.2975 
3 *416:23 *416:25 355.749 
4 *416:25 gpio_ib_mode_sel[27] 10.9324 
*END

*D_NET *417 0.37952
*CONN
*P gpio_ib_mode_sel[28] O
*I *874:gpio_ib_mode_sel[28] O *D counter_gpio_config_example
*CAP
1 gpio_ib_mode_sel[28] 0.00299215
2 *874:gpio_ib_mode_sel[28] 0.00860275
3 *417:17 0.0648518
4 *417:15 0.0619328
5 *417:9 0.0432385
6 *417:7 0.0517681
7 gpio_ib_mode_sel[28] gpio_oeb[28] 0
8 gpio_ib_mode_sel[28] gpio_vtrip_sel[28] 0.00147033
9 *417:9 *424:9 0.00894708
10 *417:9 *424:35 0.00152055
11 *417:9 *424:37 0.00649894
12 *417:9 *457:11 0
13 *417:9 *819:13 0
14 *417:15 gpio_out[34] 0.000187038
15 *417:17 *550:9 0
16 *377:7 *417:7 0.000566304
17 *382:7 *417:7 0.00142
18 *416:25 *417:17 0.125523
*RES
1 *874:gpio_ib_mode_sel[28] *417:7 27.3957 
2 *417:7 *417:9 887.768 
3 *417:9 *417:15 7.11923 
4 *417:15 *417:17 268.191 
5 *417:17 gpio_ib_mode_sel[28] 10.7945 
*END

*D_NET *418 0.402827
*CONN
*P gpio_ib_mode_sel[29] O
*I *874:gpio_ib_mode_sel[29] O *D counter_gpio_config_example
*CAP
1 gpio_ib_mode_sel[29] 0.00700176
2 *874:gpio_ib_mode_sel[29] 0.0045406
3 *418:9 0.122606
4 *418:7 0.120144
5 gpio_ib_mode_sel[29] gpio_vtrip_sel[29] 0
6 gpio_ib_mode_sel[29] *682:9 0.0102898
7 *162:9 *418:9 0.00117529
8 *179:15 *418:9 0.00828756
9 *212:7 *418:7 0
10 *241:19 *418:9 0.00333311
11 *259:15 *418:7 0
12 *333:9 *418:9 0.125062
13 *369:7 *418:7 0.000387441
14 *374:9 *418:9 0
*RES
1 *874:gpio_ib_mode_sel[29] *418:7 13.9552 
2 *418:7 *418:9 373.553 
3 *418:9 gpio_ib_mode_sel[29] 25.1514 
*END

*D_NET *419 0.453776
*CONN
*P gpio_ib_mode_sel[2] O
*I *874:gpio_ib_mode_sel[2] O *D counter_gpio_config_example
*CAP
1 gpio_ib_mode_sel[2] 0.00296432
2 *874:gpio_ib_mode_sel[2] 0.00242444
3 *419:17 0.0889747
4 *419:15 0.102219
5 *419:11 0.0186333
6 gpio_ib_mode_sel[2] *683:17 0
7 gpio_ib_mode_sel[2] *815:21 0.000782721
8 *419:15 *749:25 0.00254282
9 *419:17 *683:17 0
10 *419:17 *815:21 0.22484
11 *131:9 *419:11 0
12 *169:13 *419:15 0.00214487
13 *177:11 *419:17 0.002291
14 *214:13 *419:15 0.000348479
15 *243:15 *419:15 0.0020336
16 *263:11 *419:11 0.00071623
17 *281:11 *419:11 0.000880224
18 *281:13 *419:15 0.000463187
19 *298:16 *419:11 0.000771268
20 *357:17 *419:15 0.000745269
*RES
1 *874:gpio_ib_mode_sel[2] *419:11 11.7964 
2 *419:11 *419:15 42.5547 
3 *419:15 *419:17 356.345 
4 *419:17 gpio_ib_mode_sel[2] 7.21685 
*END

*D_NET *420 0.308675
*CONN
*P gpio_ib_mode_sel[30] O
*I *874:gpio_ib_mode_sel[30] O *D counter_gpio_config_example
*CAP
1 gpio_ib_mode_sel[30] 0.00224116
2 *874:gpio_ib_mode_sel[30] 0.00211695
3 *420:18 0.0460293
4 *420:16 0.0437882
5 *420:14 0.0974108
6 *420:12 0.0995277
7 gpio_ib_mode_sel[30] gpio_oeb[30] 0.000649543
8 gpio_ib_mode_sel[30] gpio_vtrip_sel[30] 0.000435879
9 *420:12 *545:12 0.00086184
10 *420:18 gpio_oeb[30] 8.36199e-06
11 *420:18 gpio_vtrip_sel[30] 0.0156049
12 *237:9 *420:12 0
*RES
1 *874:gpio_ib_mode_sel[30] *420:12 7.83073 
2 *420:12 *420:14 228.987 
3 *420:14 *420:16 3.41 
4 *420:16 *420:18 117.372 
5 *420:18 gpio_ib_mode_sel[30] 5.95255 
*END

*D_NET *421 0.292179
*CONN
*P gpio_ib_mode_sel[31] O
*I *874:gpio_ib_mode_sel[31] O *D counter_gpio_config_example
*CAP
1 gpio_ib_mode_sel[31] 0.00979826
2 *874:gpio_ib_mode_sel[31] 0.00395775
3 *421:9 0.121533
4 *421:7 0.115692
5 gpio_ib_mode_sel[31] gpio_oeb[31] 0
6 gpio_ib_mode_sel[31] gpio_vtrip_sel[31] 0.000851436
7 *157:7 *421:7 0
8 *215:9 *421:9 0.0101007
9 *217:9 *421:9 0.021287
10 *259:17 *421:9 0.00817769
11 *329:15 gpio_ib_mode_sel[31] 5.64774e-06
12 *379:11 *421:7 0.000774983
*RES
1 *874:gpio_ib_mode_sel[31] *421:7 12.5139 
2 *421:7 *421:9 257.964 
3 *421:9 gpio_ib_mode_sel[31] 25.9347 
*END

*D_NET *422 0.321477
*CONN
*P gpio_ib_mode_sel[32] O
*I *874:gpio_ib_mode_sel[32] O *D counter_gpio_config_example
*CAP
1 gpio_ib_mode_sel[32] 0.00039668
2 *874:gpio_ib_mode_sel[32] 0.000449743
3 *422:17 0.0445771
4 *422:15 0.0441805
5 *422:13 0.0187914
6 *422:11 0.0192411
7 gpio_ib_mode_sel[32] gpio_oeb[32] 0
8 gpio_ib_mode_sel[32] gpio_vtrip_sel[32] 6.1942e-05
9 gpio_ib_mode_sel[32] *726:21 0.000558298
10 *422:13 *463:11 0
11 *422:13 *549:13 0.0848026
12 *422:17 gpio_oeb[32] 0.000132749
13 *422:17 *834:9 0.0293553
14 *137:13 *422:11 0.000180786
15 *303:7 *422:11 1.92263e-05
16 *335:13 *422:13 0.0683857
17 *343:11 *422:11 0.000151246
18 *368:13 *422:13 0.000106304
19 *378:13 *422:13 0.00144616
20 *378:21 *422:13 0.00864053
21 *405:9 *422:11 0
*RES
1 *874:gpio_ib_mode_sel[32] *422:11 5.1302 
2 *422:11 *422:13 1051.7 
3 *422:13 *422:15 3.41 
4 *422:15 *422:17 126.38 
5 *422:17 gpio_ib_mode_sel[32] 14.2476 
*END

*D_NET *423 0.189682
*CONN
*P gpio_ib_mode_sel[33] O
*I *874:gpio_ib_mode_sel[33] O *D counter_gpio_config_example
*CAP
1 gpio_ib_mode_sel[33] 0.000125277
2 *874:gpio_ib_mode_sel[33] 0.00311308
3 *423:17 0.0502462
4 *423:15 0.0501209
5 *423:13 0.0146778
6 *423:11 0.0177908
7 *423:13 *444:11 0.0059693
8 *423:13 *446:11 0.00417718
9 *423:17 gpio_oeb[33] 0.000655968
10 *423:17 gpio_vtrip_sel[33] 0.0005678
11 *423:17 *687:17 0
12 *423:17 *712:9 0.00510879
13 *153:13 *423:13 0.0296437
14 *239:21 *423:13 0
15 *281:21 *423:13 0.000949693
16 *286:13 *423:13 0.00568886
17 *331:9 *423:11 0
18 *367:15 *423:11 0.000320113
19 *397:7 *423:11 3.0855e-05
20 *397:9 *423:11 0.000495486
*RES
1 *874:gpio_ib_mode_sel[33] *423:11 10.7874 
2 *423:11 *423:13 63.6474 
3 *423:13 *423:15 3.41 
4 *423:15 *423:17 132.41 
5 *423:17 gpio_ib_mode_sel[33] 0.42065 
*END

*D_NET *424 0.174061
*CONN
*P gpio_ib_mode_sel[34] O
*I *874:gpio_ib_mode_sel[34] O *D counter_gpio_config_example
*CAP
1 gpio_ib_mode_sel[34] 0.00253926
2 *874:gpio_ib_mode_sel[34] 0.00806777
3 *424:44 6.99871e-06
4 *424:37 0.0167067
5 *424:35 0.0184721
6 *424:9 0.0314193
7 *424:7 0.0351894
8 gpio_ib_mode_sel[34] gpio_oeb[34] 0
9 gpio_ib_mode_sel[34] gpio_vtrip_sel[34] 0.00446515
10 gpio_ib_mode_sel[34] *688:25 0
11 *424:9 *550:9 0.00174023
12 *424:9 *819:13 0.0100694
13 *424:35 gpio_slow_sel[36] 4.7224e-05
14 *424:35 *550:9 0.000383052
15 *424:35 *819:13 0
16 *424:37 *550:9 0.00303483
17 *424:44 gpio_oeb[34] 0
18 gpio_dm0[36] *424:35 2.82126e-05
19 gpio_dm1[36] *424:35 0.000104195
20 *202:7 *424:7 0.0020325
21 *291:7 *424:7 0.00142296
22 *416:23 *424:9 0.00196755
23 *416:23 *424:35 0.00542678
24 *416:23 *424:37 0.00108331
25 *416:25 *424:37 0.0128871
26 *417:9 *424:9 0.00894708
27 *417:9 *424:35 0.00152055
28 *417:9 *424:37 0.00649894
*RES
1 *874:gpio_ib_mode_sel[34] *424:7 27.5038 
2 *424:7 *424:9 82.8265 
3 *424:9 *424:35 33.304 
4 *424:35 *424:37 59.7057 
5 *424:37 gpio_ib_mode_sel[34] 10.8564 
6 gpio_ib_mode_sel[34] *424:44 0.0687805 
*END

*D_NET *425 0.201255
*CONN
*P gpio_ib_mode_sel[35] O
*I *874:gpio_ib_mode_sel[35] O *D counter_gpio_config_example
*CAP
1 gpio_ib_mode_sel[35] 0.000275832
2 *874:gpio_ib_mode_sel[35] 0.000309424
3 *425:21 0.0019754
4 *425:19 0.00169956
5 *425:17 0.0304269
6 *425:15 0.0304269
7 *425:13 0.00752982
8 *425:11 0.00783924
9 gpio_ib_mode_sel[35] gpio_oeb[35] 0.00015886
10 gpio_ib_mode_sel[35] gpio_vtrip_sel[35] 0.00051338
11 *425:13 *543:13 0.0257402
12 *425:13 *546:13 0
13 *425:17 *557:17 0.0260444
14 *425:17 *661:15 0.00284582
15 *425:17 *689:9 0.0179228
16 *425:17 *705:35 0.00139712
17 *425:17 *734:9 0.000672359
18 *425:17 *735:9 0.00125382
19 *425:17 *749:19 0.00457166
20 *425:17 *779:16 0.0043802
21 *425:17 *787:9 0.00100483
22 *425:21 *726:21 0
23 *127:19 *425:17 4.57582e-05
24 *140:7 *425:11 3.74744e-05
25 *140:9 *425:11 2.10916e-05
26 *146:27 *425:17 0.00356406
27 *200:13 *425:13 0.0007787
28 *235:13 *425:13 0.0140246
29 *239:11 *425:11 6.77075e-05
30 *240:19 *425:17 0.00198607
31 *282:27 *425:17 4.73891e-05
32 *338:21 *425:21 0.00734466
33 *347:19 *425:17 2.35215e-05
34 *381:21 *425:21 0.00632505
*RES
1 *874:gpio_ib_mode_sel[35] *425:11 4.2654 
2 *425:11 *425:13 320.696 
3 *425:13 *425:15 3.41 
4 *425:15 *425:17 125.083 
5 *425:17 *425:19 3.41 
6 *425:19 *425:21 91.8036 
7 *425:21 gpio_ib_mode_sel[35] 4.45262 
*END

*D_NET *426 0.15335
*CONN
*P gpio_ib_mode_sel[36] O
*I *874:gpio_ib_mode_sel[36] O *D counter_gpio_config_example
*CAP
1 gpio_ib_mode_sel[36] 0.011913
2 *874:gpio_ib_mode_sel[36] 0.00189334
3 *426:9 0.0327251
4 *426:7 0.0227054
5 gpio_ib_mode_sel[36] gpio_oeb[36] 0.00103354
6 *426:9 *431:9 0.00181635
7 *426:9 *778:13 0.00255868
8 *93:7 *426:7 0.000379918
9 *93:9 *426:9 0.0230197
10 *93:17 *426:9 0.000834088
11 *105:9 *426:9 0.000161366
12 *105:15 gpio_ib_mode_sel[36] 0
13 *122:17 *426:9 0.000994543
14 *127:9 *426:9 0.00702148
15 *133:9 *426:9 0.030561
16 *180:9 *426:9 0.000280861
17 *194:7 gpio_ib_mode_sel[36] 0
18 *223:7 *426:7 0.000111872
19 *244:9 *426:9 0.0121227
20 *392:13 *426:9 0.00321748
*RES
1 *874:gpio_ib_mode_sel[36] *426:7 8.1899 
2 *426:7 *426:9 101.68 
3 *426:9 gpio_ib_mode_sel[36] 30.5972 
*END

*D_NET *427 0.294886
*CONN
*P gpio_ib_mode_sel[37] O
*I *874:gpio_ib_mode_sel[37] O *D counter_gpio_config_example
*CAP
1 gpio_ib_mode_sel[37] 0.000447155
2 *874:gpio_ib_mode_sel[37] 0.000414568
3 *427:21 0.017166
4 *427:19 0.0167188
5 *427:17 0.0221226
6 *427:15 0.0221226
7 *427:13 0.00267573
8 *427:11 0.0030903
9 gpio_ib_mode_sel[37] gpio_oeb[37] 0.00012426
10 gpio_ib_mode_sel[37] gpio_vtrip_sel[37] 7.20504e-05
11 *427:11 *531:11 7.11587e-05
12 *427:13 *546:13 0
13 *427:17 *829:16 0.000686078
14 *427:21 gpio_vtrip_sel[37] 0.000698555
15 *427:21 *726:21 0
16 gpio_dm0[37] *427:21 0
17 gpio_holdover[36] *427:21 0.00355527
18 *117:17 *427:17 0.0630745
19 *118:20 *427:21 0.00315959
20 *148:17 *427:17 0.00820799
21 *160:17 *427:13 0.000333729
22 *207:9 *427:21 0
23 *215:33 *427:17 0.00486935
24 *235:13 *427:13 0.00874058
25 *293:21 *427:21 0.00413914
26 *313:7 *427:11 3.58177e-05
27 *313:9 *427:11 2.82711e-05
28 *338:13 *427:13 0.0047847
29 *338:17 *427:17 0.0775607
30 *338:21 *427:21 0.0218364
31 *339:35 *427:21 0
32 *381:17 *427:17 0.00425495
33 *381:21 *427:21 1.69252e-05
34 *391:21 *427:17 0.00387824
*RES
1 *874:gpio_ib_mode_sel[37] *427:11 4.40953 
2 *427:11 *427:13 109.411 
3 *427:13 *427:15 3.41 
4 *427:15 *427:17 125.083 
5 *427:17 *427:19 3.41 
6 *427:19 *427:21 481.589 
7 *427:21 gpio_ib_mode_sel[37] 4.62808 
*END

*D_NET *428 0.152759
*CONN
*P gpio_ib_mode_sel[38] O
*I *874:gpio_ib_mode_sel[38] O *D counter_gpio_config_example
*CAP
1 gpio_ib_mode_sel[38] 0.00573052
2 *874:gpio_ib_mode_sel[38] 7.65102e-05
3 *428:17 0.00573052
4 *428:15 0.02891
5 *428:13 0.02891
6 *428:11 0.0124791
7 *428:9 0.0125556
8 gpio_ib_mode_sel[38] *692:13 0.0136711
9 *428:11 *560:11 0.00892379
10 *428:11 *564:8 0.000293242
11 *428:11 *566:8 0.000200642
12 *428:15 *472:13 0.000802781
13 *428:15 *477:11 0
14 *428:15 *695:14 0.0321556
15 *105:7 *428:9 4.43731e-06
16 *252:42 gpio_ib_mode_sel[38] 0.000445008
17 *301:9 *428:11 0
18 *392:11 *428:9 0
19 *404:11 *428:11 0.00187003
*RES
1 *874:gpio_ib_mode_sel[38] *428:9 3.62307 
2 *428:9 *428:11 299.446 
3 *428:11 *428:13 3.41 
4 *428:13 *428:15 92.8689 
5 *428:15 *428:17 3.41 
6 *428:17 gpio_ib_mode_sel[38] 175.768 
*END

*D_NET *429 0.113463
*CONN
*P gpio_ib_mode_sel[39] O
*I *874:gpio_ib_mode_sel[39] O *D counter_gpio_config_example
*CAP
1 gpio_ib_mode_sel[39] 0.00110481
2 *874:gpio_ib_mode_sel[39] 0.000139479
3 *429:13 0.0255099
4 *429:11 0.0244051
5 *429:9 0.0249552
6 *429:7 0.0250947
7 gpio_ib_mode_sel[39] gpio_oeb[39] 0
8 gpio_ib_mode_sel[39] *478:9 0
9 gpio_ib_mode_sel[39] *565:13 0.000369715
10 gpio_ib_mode_sel[39] *825:18 0
11 *429:13 *825:18 0
12 *126:11 *429:7 4.72078e-05
13 *126:11 *429:9 0.000265484
14 *131:7 *429:7 4.72078e-05
15 *131:9 *429:7 8.12865e-06
16 *131:9 *429:9 0.00931268
17 *222:9 *429:9 0
18 *298:16 *429:9 0.000105439
19 *320:17 *429:9 0.00209786
*RES
1 *874:gpio_ib_mode_sel[39] *429:7 0.556167 
2 *429:7 *429:9 82.5273 
3 *429:9 *429:11 3.41 
4 *429:11 *429:13 494.339 
5 *429:13 gpio_ib_mode_sel[39] 23.0641 
*END

*D_NET *430 0.432522
*CONN
*P gpio_ib_mode_sel[3] O
*I *874:gpio_ib_mode_sel[3] O *D counter_gpio_config_example
*CAP
1 gpio_ib_mode_sel[3] 0.00282165
2 *874:gpio_ib_mode_sel[3] 0.0554429
3 *430:19 0.134915
4 *430:17 0.132093
5 *430:15 0.0181306
6 *430:13 0.0735734
7 gpio_ib_mode_sel[3] gpio_oeb[3] 0
8 gpio_ib_mode_sel[3] gpio_vtrip_sel[3] 0.00194068
9 gpio_ib_mode_sel[3] *826:22 0
10 *430:13 *433:8 0.000231848
11 *430:13 *437:9 0.00020935
12 *430:19 *826:22 0
13 *98:13 *430:15 0.002468
14 *130:13 *430:15 0
15 *177:13 *430:15 0.00311171
16 *209:9 *430:13 0.00134526
17 *253:11 *430:19 0
18 *258:13 *430:15 0.00546346
19 *353:9 *430:13 0.00077554
*RES
1 *874:gpio_ib_mode_sel[3] *430:13 17.1436 
2 *430:13 *430:15 48.5197 
3 *430:15 *430:17 3.41 
4 *430:17 *430:19 345.246 
5 *430:19 gpio_ib_mode_sel[3] 7.04138 
*END

*D_NET *431 0.369048
*CONN
*P gpio_ib_mode_sel[40] O
*I *874:gpio_ib_mode_sel[40] O *D counter_gpio_config_example
*CAP
1 gpio_ib_mode_sel[40] 0.000872327
2 *874:gpio_ib_mode_sel[40] 0.00199884
3 *431:13 0.0569383
4 *431:11 0.0560659
5 *431:9 0.022541
6 *431:7 0.0245399
7 gpio_ib_mode_sel[40] *695:22 0
8 *431:9 *537:9 0
9 *431:9 *666:15 0.000106304
10 *431:9 *778:13 0
11 *431:13 *565:13 0.139953
12 *431:13 *693:9 0
13 gpio_analog_en[38] *431:13 0.0047038
14 gpio_analog_pol[39] *431:13 0.00517148
15 *93:17 *431:9 0.0146661
16 *105:9 *431:9 0.00147726
17 *125:9 *431:9 0.0359089
18 *133:9 *431:9 0.00166381
19 *289:7 *431:7 0.000312052
20 *402:7 *431:7 0.000312052
21 *406:9 *431:9 0
22 *407:9 *431:9 0
23 *411:9 *431:9 0
24 *426:9 *431:9 0.00181635
*RES
1 *874:gpio_ib_mode_sel[40] *431:7 7.93767 
2 *431:7 *431:9 692.875 
3 *431:9 *431:11 3.41 
4 *431:11 *431:13 225.183 
5 *431:13 gpio_ib_mode_sel[40] 20.2046 
*END

*D_NET *432 0.22176
*CONN
*P gpio_ib_mode_sel[41] O
*I *874:gpio_ib_mode_sel[41] O *D counter_gpio_config_example
*CAP
1 gpio_ib_mode_sel[41] 4.71163e-05
2 *874:gpio_ib_mode_sel[41] 0.000728137
3 *432:23 0.00269109
4 *432:21 0.00264397
5 *432:19 0.0960947
6 *432:17 0.0960947
7 *432:15 0.00434571
8 *432:13 0.00507385
9 gpio_ib_mode_sel[41] gpio_oeb[41] 2.25008e-05
10 *432:13 *560:11 8.23027e-05
11 *432:13 *563:11 0.000943493
12 *432:13 *564:8 0.000111243
13 *432:13 *566:8 0.000322558
14 *432:13 *567:13 0.000276239
15 *432:13 *662:19 0
16 *432:15 *563:11 0.00565833
17 *432:15 *566:8 0.00164659
18 *432:19 *563:15 0
19 *432:23 gpio_oeb[41] 0
20 *432:23 gpio_vtrip_sel[41] 0
21 *432:23 *696:18 0.00497748
22 *126:17 *432:19 0
23 *211:17 *432:19 0
24 *345:17 *432:23 0
*RES
1 *874:gpio_ib_mode_sel[41] *432:13 18.3534 
2 *432:13 *432:15 126.625 
3 *432:15 *432:17 3.41 
4 *432:17 *432:19 263.451 
5 *432:19 *432:21 3.41 
6 *432:21 *432:23 76.0179 
7 *432:23 gpio_ib_mode_sel[41] 1.25893 
*END

*D_NET *433 0.297848
*CONN
*P gpio_ib_mode_sel[42] O
*I *874:gpio_ib_mode_sel[42] O *D counter_gpio_config_example
*CAP
1 gpio_ib_mode_sel[42] 0.000352316
2 *874:gpio_ib_mode_sel[42] 0.00253708
3 *433:22 0.0887821
4 *433:20 0.0884298
5 *433:18 0.010099
6 *433:16 0.0103502
7 *433:10 0.0273571
8 *433:8 0.029643
9 gpio_ib_mode_sel[42] gpio_vtrip_sel[42] 9.96492e-06
10 *433:8 *664:18 0.000561395
11 *433:8 *665:22 0.000561395
12 *433:10 *532:17 0
13 *433:10 *534:16 0
14 *433:10 *566:8 0
15 *433:10 *571:12 0
16 *433:10 *664:16 0
17 *433:10 *665:20 0
18 *433:16 *459:23 0.000135402
19 *433:16 *690:13 0.000342911
20 *433:16 *726:9 0.000133373
21 *433:16 *731:9 0.000125567
22 *433:22 *828:11 0.000276559
23 *433:22 *828:13 0.0258807
24 *433:22 *873:13 0.00131935
25 *123:21 *433:22 0
26 *125:21 *433:22 0
27 *129:9 *433:8 0.00129528
28 *129:9 *433:10 0
29 *144:8 *433:10 0
30 *168:21 *433:22 0
31 *257:19 *433:22 0.00527743
32 *300:21 *433:22 0
33 *342:19 *433:10 0
34 *344:33 *433:22 0.00366774
35 *344:35 *433:22 0
36 *345:23 *433:22 0.000478189
37 *430:13 *433:8 0.000231848
*RES
1 *874:gpio_ib_mode_sel[42] *433:8 12.3964 
2 *433:8 *433:10 76.5379 
3 *433:10 *433:16 7.8399 
4 *433:16 *433:18 203.366 
5 *433:18 *433:20 4.5 
6 *433:20 *433:22 1735.39 
7 *433:22 gpio_ib_mode_sel[42] 11.8571 
*END

*D_NET *434 0.393915
*CONN
*P gpio_ib_mode_sel[43] O
*I *874:gpio_ib_mode_sel[43] O *D counter_gpio_config_example
*CAP
1 gpio_ib_mode_sel[43] 0.000120043
2 *874:gpio_ib_mode_sel[43] 0.000363583
3 *434:21 0.00313219
4 *434:19 0.00305962
5 *434:17 0.00422786
6 *434:15 0.00418038
7 *434:13 0.11194
8 *434:11 0.11194
9 *434:9 0.0152819
10 *434:7 0.0156455
11 *434:13 *698:9 0
12 *434:21 gpio_vtrip_sel[43] 0.00318645
13 *107:7 *434:7 5.65691e-05
14 *223:9 *434:9 0
15 *225:9 *434:9 0
16 *252:48 *434:13 0.00353556
17 *266:15 *434:9 0.000556214
18 *302:9 *434:9 0.0378174
19 *302:13 *434:13 0
20 *343:17 *434:13 0.0774088
21 *347:9 *434:9 0.00103975
22 *373:7 *434:7 4.98092e-05
23 *384:9 *434:9 0
24 *391:9 *434:9 0.000372626
*RES
1 *874:gpio_ib_mode_sel[43] *434:7 4.1902 
2 *434:7 *434:9 469.446 
3 *434:9 *434:11 3.41 
4 *434:11 *434:13 349.859 
5 *434:13 *434:15 3.41 
6 *434:15 *434:17 83.1429 
7 *434:17 *434:19 0.946429 
8 *434:19 *434:21 73.9286 
9 *434:21 gpio_ib_mode_sel[43] 2.52679 
*END

*D_NET *435 0.313495
*CONN
*P gpio_ib_mode_sel[4] O
*I *874:gpio_ib_mode_sel[4] O *D counter_gpio_config_example
*CAP
1 gpio_ib_mode_sel[4] 0.00668705
2 *874:gpio_ib_mode_sel[4] 0.00018082
3 *435:9 0.12111
4 *435:7 0.114604
5 gpio_ib_mode_sel[4] gpio_oeb[4] 0.00190782
6 gpio_ib_mode_sel[4] *483:11 0.00257489
7 gpio_ib_mode_sel[4] *699:9 0.00292851
8 gpio_analog_pol[4] gpio_ib_mode_sel[4] 0.00950894
9 *156:11 *435:7 4.1194e-05
10 *156:11 *435:9 0.000471497
11 *171:7 *435:7 4.1194e-05
12 *171:9 *435:7 5.66041e-06
13 *171:9 *435:9 0.04086
14 *348:13 gpio_ib_mode_sel[4] 0.012573
*RES
1 *874:gpio_ib_mode_sel[4] *435:7 0.556167 
2 *435:7 *435:9 362.542 
3 *435:9 gpio_ib_mode_sel[4] 41.7347 
*END

*D_NET *436 0.378845
*CONN
*P gpio_ib_mode_sel[5] O
*I *874:gpio_ib_mode_sel[5] O *D counter_gpio_config_example
*CAP
1 gpio_ib_mode_sel[5] 0.00284133
2 *874:gpio_ib_mode_sel[5] 0.00795889
3 *436:17 0.127152
4 *436:15 0.124311
5 *436:13 0.0409747
6 *436:11 0.0489336
7 gpio_ib_mode_sel[5] gpio_oeb[5] 0
8 gpio_ib_mode_sel[5] gpio_vtrip_sel[5] 0.001469
9 *436:13 *540:13 0
10 *436:13 *541:13 0.00601499
11 *436:13 *567:27 0.00450194
12 *436:13 *717:13 0.00979077
13 *436:17 gpio_oeb[5] 0
14 *175:7 *436:11 4.19118e-05
15 *175:9 *436:11 0.0021382
16 *312:7 *436:11 4.72078e-05
17 *312:9 *436:11 0.00266925
18 *400:13 *436:13 0
*RES
1 *874:gpio_ib_mode_sel[5] *436:11 29.0924 
2 *436:11 *436:13 104.024 
3 *436:13 *436:15 3.41 
4 *436:15 *436:17 339.049 
5 *436:17 gpio_ib_mode_sel[5] 7.22938 
*END

*D_NET *437 0.414563
*CONN
*P gpio_ib_mode_sel[6] O
*I *874:gpio_ib_mode_sel[6] O *D counter_gpio_config_example
*CAP
1 gpio_ib_mode_sel[6] 0.00754585
2 *874:gpio_ib_mode_sel[6] 0.000142709
3 *437:13 0.0467512
4 *437:11 0.0392054
5 *437:9 0.109301
6 *437:7 0.109444
7 gpio_ib_mode_sel[6] gpio_oeb[6] 0.00254418
8 gpio_ib_mode_sel[6] gpio_vtrip_sel[6] 0.000798618
9 *437:7 *874:gpio_in[0] 4.72078e-05
10 *437:9 *874:gpio_in[0] 0.00139364
11 *134:13 *437:13 0
12 *136:13 *437:13 0.0573516
13 *210:14 *437:13 0
14 *303:13 *437:13 0
15 *353:7 *437:7 4.72078e-05
16 *353:9 *437:7 8.12865e-06
17 *353:9 *437:9 0.0397725
18 *430:13 *437:9 0.00020935
*RES
1 *874:gpio_ib_mode_sel[6] *437:7 0.556167 
2 *437:7 *437:9 350.723 
3 *437:9 *437:11 3.41 
4 *437:11 *437:13 153.668 
5 *437:13 gpio_ib_mode_sel[6] 23.6082 
*END

*D_NET *438 0.72999
*CONN
*P gpio_ib_mode_sel[7] O
*I *874:gpio_ib_mode_sel[7] O *D counter_gpio_config_example
*CAP
1 gpio_ib_mode_sel[7] 0.00152393
2 *874:gpio_ib_mode_sel[7] 0.00152689
3 *438:13 0.177159
4 *438:11 0.175635
5 *438:9 0.0310849
6 *438:7 0.0326118
7 gpio_ib_mode_sel[7] gpio_oeb[7] 0.000395582
8 gpio_ib_mode_sel[7] gpio_vtrip_sel[7] 0.000259942
9 *438:7 *663:7 0.000223769
10 *438:9 *439:9 0.15067
11 *438:9 *569:21 0.0128431
12 *438:13 gpio_out[7] 0
13 *438:13 gpio_vtrip_sel[7] 0.0216907
14 *139:7 *438:7 0
15 *411:9 *438:9 0.00105359
16 *412:9 *438:9 0.123311
17 *414:7 *438:7 0
*RES
1 *874:gpio_ib_mode_sel[7] *438:7 7.0008 
2 *438:7 *438:9 1881.66 
3 *438:9 *438:11 3.41 
4 *438:11 *438:13 465.021 
5 *438:13 gpio_ib_mode_sel[7] 14.1685 
*END

*D_NET *439 0.788628
*CONN
*P gpio_ib_mode_sel[8] O
*I *874:gpio_ib_mode_sel[8] O *D counter_gpio_config_example
*CAP
1 gpio_ib_mode_sel[8] 0.00145609
2 *874:gpio_ib_mode_sel[8] 0.00124172
3 *439:13 0.180305
4 *439:11 0.178849
5 *439:9 0.0400757
6 *439:7 0.0413174
7 gpio_ib_mode_sel[8] gpio_oeb[8] 0
8 gpio_ib_mode_sel[8] gpio_vtrip_sel[8] 0.000971411
9 *439:7 *666:15 1.43076e-05
10 *439:9 *666:17 0.181535
11 *439:13 gpio_oeb[8] 0
12 *439:13 gpio_vtrip_sel[8] 0.00288196
13 *439:13 *764:11 0
14 *371:7 *439:7 0.000278867
15 *411:7 *439:7 0.000326641
16 *411:9 *439:9 0
17 *412:9 *439:9 0.00870477
18 *438:9 *439:9 0.15067
*RES
1 *874:gpio_ib_mode_sel[8] *439:7 6.92873 
2 *439:7 *439:9 2270.23 
3 *439:9 *439:11 3.41 
4 *439:11 *439:13 464.949 
5 *439:13 gpio_ib_mode_sel[8] 12.3846 
*END

*D_NET *440 0.755083
*CONN
*P gpio_ib_mode_sel[9] O
*I *874:gpio_ib_mode_sel[9] O *D counter_gpio_config_example
*CAP
1 gpio_ib_mode_sel[9] 8.04852e-05
2 *874:gpio_ib_mode_sel[9] 0.00492723
3 *440:13 0.174692
4 *440:11 0.174611
5 *440:9 0.0522154
6 *440:7 0.0571427
7 *440:7 gpio_slow_sel[37] 0.000724114
8 *440:13 gpio_oeb[9] 0.00933522
9 *440:13 *836:17 0
10 *157:7 *440:7 0
11 *174:7 *440:7 0
12 *178:17 *440:9 0.165873
13 *241:19 *440:9 0.0054875
14 *302:7 *440:7 5.67195e-05
15 *304:9 *440:9 0.0487551
16 *374:9 *440:9 0.0611826
*RES
1 *874:gpio_ib_mode_sel[9] *440:7 14.5678 
2 *440:7 *440:9 2042.55 
3 *440:9 *440:11 3.41 
4 *440:11 *440:13 475.77 
5 *440:13 gpio_ib_mode_sel[9] 0.27025 
*END

*D_NET *441 0.336561
*CONN
*P gpio_in[0] I
*I *874:gpio_in[0] I *D counter_gpio_config_example
*CAP
1 gpio_in[0] 0.000102415
2 *874:gpio_in[0] 0.00484465
3 *441:11 0.0259931
4 *441:9 0.0211484
5 *441:7 0.130792
6 *441:5 0.130894
7 *874:gpio_in[0] *463:7 0
8 *874:gpio_in[0] *557:11 0.000212575
9 *441:7 *749:29 0
10 *124:13 *441:11 0.00806731
11 *263:13 *441:11 0.0130648
12 *437:7 *874:gpio_in[0] 4.72078e-05
13 *437:9 *874:gpio_in[0] 0.00139364
*RES
1 gpio_in[0] *441:5 0.343883 
2 *441:5 *441:7 357.112 
3 *441:7 *441:9 3.41 
4 *441:9 *441:11 68.8675 
5 *441:11 *874:gpio_in[0] 17.4176 
*END

*D_NET *442 0.550945
*CONN
*P gpio_in[10] I
*I *874:gpio_in[10] I *D counter_gpio_config_example
*CAP
1 gpio_in[10] 7.76857e-05
2 *874:gpio_in[10] 0.00643196
3 *442:11 0.136231
4 *442:9 0.129799
5 *442:7 0.124669
6 *442:5 0.124747
7 *874:gpio_in[10] *874:gpio_in[11] 1.22363e-05
8 *874:gpio_in[10] *874:gpio_in[12] 0.000926908
9 *874:gpio_in[10] *443:15 0.0197551
10 *874:gpio_in[10] *445:15 0.00359974
11 *442:11 *761:21 0
12 *169:17 *874:gpio_in[10] 0.00469537
*RES
1 gpio_in[10] *442:5 0.26085 
2 *442:5 *442:7 338.843 
3 *442:7 *442:9 3.41 
4 *442:9 *442:11 2654.55 
5 *442:11 *874:gpio_in[10] 39.6044 
*END

*D_NET *443 0.722995
*CONN
*P gpio_in[11] I
*I *874:gpio_in[11] I *D counter_gpio_config_example
*CAP
1 gpio_in[11] 0.00028764
2 *874:gpio_in[11] 0.00045481
3 *443:15 0.0989513
4 *443:13 0.0984965
5 *443:11 0.138884
6 *443:9 0.138884
7 *443:7 0.0297624
8 *443:5 0.03005
9 *874:gpio_in[11] *874:gpio_in[1] 0.000459515
10 *443:15 *874:gpio_in[1] 0.000281938
11 *443:15 *446:17 0.000650188
12 *443:15 *447:13 0.0313872
13 *443:15 *448:9 0.0251849
14 *443:15 *483:15 0.0362175
15 *443:15 *670:9 0.00760789
16 *443:15 *683:11 0.00121748
17 *443:15 *700:9 0.0406634
18 *874:gpio_in[10] *874:gpio_in[11] 1.22363e-05
19 *874:gpio_in[10] *443:15 0.0197551
20 *169:17 *443:15 0.0237866
*RES
1 gpio_in[11] *443:5 0.887517 
2 *443:5 *443:7 76.1604 
3 *443:7 *443:9 3.41 
4 *443:9 *443:11 2852.48 
5 *443:11 *443:13 3.41 
6 *443:13 *443:15 294.547 
7 *443:15 *874:gpio_in[11] 5.57195 
*END

*D_NET *444 0.7785
*CONN
*P gpio_in[12] I
*I *874:gpio_in[12] I *D counter_gpio_config_example
*CAP
1 gpio_in[12] 0.000140653
2 *874:gpio_in[12] 0.00277413
3 *444:11 0.0853815
4 *444:9 0.0826074
5 *444:7 0.133691
6 *444:5 0.133831
7 *874:gpio_in[12] *446:17 0.000702104
8 *874:gpio_in[12] *700:9 0.0007035
9 *874:gpio_in[12] *815:17 0
10 *444:7 *752:17 0
11 *444:11 *446:11 0.247628
12 *444:11 *683:13 0.0416522
13 *444:11 *826:18 0.013749
14 *874:gpio_in[10] *874:gpio_in[12] 0.000926908
15 *153:13 *444:11 0.022161
16 *281:13 *444:11 0
17 *286:13 *444:11 0.000961388
18 *326:21 *444:11 0.00562156
19 *423:13 *444:11 0.0059693
*RES
1 gpio_in[12] *444:5 0.44885 
2 *444:5 *444:7 363.634 
3 *444:7 *444:9 3.41 
4 *444:9 *444:11 3052.84 
5 *444:11 *874:gpio_in[12] 35.2593 
*END

*D_NET *445 0.634519
*CONN
*P gpio_in[13] I
*I *874:gpio_in[13] I *D counter_gpio_config_example
*CAP
1 gpio_in[13] 7.14074e-06
2 *874:gpio_in[13] 0
3 *445:15 0.00728205
4 *445:13 0.00728205
5 *445:11 0.129555
6 *445:9 0.129555
7 *445:7 0.130173
8 *445:5 0.13018
9 *445:5 *753:25 0
10 *445:7 *753:25 0
11 *445:15 *874:gpio_in[14] 0.000110772
12 *445:15 *446:17 0.00263487
13 *445:15 *700:9 0.00376903
14 *874:gpio_in[10] *445:15 0.00359974
15 *277:13 *445:11 0.0903693
*RES
1 gpio_in[13] *445:5 0.06 
2 *445:5 *445:7 339.924 
3 *445:7 *445:9 3.41 
4 *445:9 *445:11 3455.83 
5 *445:11 *445:13 4.5 
6 *445:13 *445:15 184.946 
7 *445:15 *874:gpio_in[13] 4.5 
*END

*D_NET *446 0.842904
*CONN
*P gpio_in[14] I
*I *874:gpio_in[14] I *D counter_gpio_config_example
*CAP
1 gpio_in[14] 0.000240927
2 *874:gpio_in[14] 0.000264932
3 *446:17 0.00128987
4 *446:13 0.00102494
5 *446:11 0.13346
6 *446:9 0.13346
7 *446:7 0.139339
8 *446:5 0.13958
9 *874:gpio_in[14] *700:9 0.000575784
10 *446:11 *533:21 0
11 *446:11 *544:13 0
12 *446:11 *683:13 0.000115262
13 *446:17 *700:9 0.00225022
14 *874:gpio_in[12] *446:17 0.000702104
15 *153:13 *446:11 0.0264213
16 *286:13 *446:11 0.00268228
17 *326:13 *446:11 0
18 *326:21 *446:11 0.00629528
19 *423:13 *446:11 0.00417718
20 *443:15 *446:17 0.000650188
21 *444:11 *446:11 0.247628
22 *445:15 *874:gpio_in[14] 0.000110772
23 *445:15 *446:17 0.00263487
*RES
1 gpio_in[14] *446:5 0.743383 
2 *446:5 *446:7 363.706 
3 *446:7 *446:9 3.41 
4 *446:9 *446:11 3850.47 
5 *446:11 *446:13 4.5 
6 *446:13 *446:17 46.9643 
7 *446:17 *874:gpio_in[14] 11.4464 
*END

*D_NET *447 0.86419
*CONN
*P gpio_in[15] I
*I *874:gpio_in[15] I *D counter_gpio_config_example
*CAP
1 gpio_in[15] 7.55776e-05
2 *874:gpio_in[15] 0.000108874
3 *447:13 0.0344903
4 *447:11 0.0343814
5 *447:9 0.196747
6 *447:7 0.196823
7 *874:gpio_in[15] *874:gpio_in[16] 0
8 *447:9 *746:13 0
9 *447:13 *874:gpio_in[1] 0.00040522
10 *447:13 *448:9 0.160599
11 *447:13 *483:15 0.208635
12 *447:13 *683:11 0.000536941
13 *443:15 *447:13 0.0313872
*RES
1 gpio_in[15] *447:7 1.60714 
2 *447:7 *447:9 4045.97 
3 *447:9 *447:11 4.5 
4 *447:11 *447:13 1974.02 
5 *447:13 *874:gpio_in[15] 6.23214 
*END

*D_NET *448 0.736462
*CONN
*P gpio_in[16] I
*I *874:gpio_in[16] I *D counter_gpio_config_example
*CAP
1 gpio_in[16] 0.196899
2 *874:gpio_in[16] 0.000130343
3 *448:9 0.0324471
4 *448:7 0.0323168
5 *448:5 0.196899
6 *874:gpio_in[16] *874:gpio_in[17] 0
7 *448:9 *450:17 0.00259077
8 *448:9 *483:15 0.000163818
9 *448:9 *670:9 0.0879636
10 *448:9 *683:11 0.00126662
11 *874:gpio_in[15] *874:gpio_in[16] 0
12 *443:15 *448:9 0.0251849
13 *447:13 *448:9 0.160599
*RES
1 gpio_in[16] *448:5 4047.43 
2 *448:5 *448:7 4.5 
3 *448:7 *448:9 1522.64 
4 *448:9 *874:gpio_in[16] 6.53571 
*END

*D_NET *449 0.535242
*CONN
*P gpio_in[17] I
*I *874:gpio_in[17] I *D counter_gpio_config_example
*CAP
1 gpio_in[17] 0.001186
2 *874:gpio_in[17] 0.000711356
3 *449:19 0.06725
4 *449:17 0.0665386
5 *449:15 0.19545
6 *449:13 0.196636
7 *874:gpio_in[17] *700:9 0.00085302
8 gpio_analog_en[17] *449:15 0.00560735
9 gpio_dm0[17] *449:15 0
10 *874:gpio_in[16] *874:gpio_in[17] 0
11 *95:13 *449:13 0.00100903
*RES
1 gpio_in[17] *449:13 31.125 
2 *449:13 *449:15 4040.05 
3 *449:15 *449:17 4.5 
4 *449:17 *449:19 1266.15 
5 *449:19 *874:gpio_in[17] 20.9196 
*END

*D_NET *450 0.556472
*CONN
*P gpio_in[18] I
*I *874:gpio_in[18] I *D counter_gpio_config_example
*CAP
1 gpio_in[18] 0.00127662
2 *874:gpio_in[18] 0.000168117
3 *450:17 0.0255249
4 *450:15 0.0253568
5 *450:13 0.196919
6 *450:11 0.198195
7 *874:gpio_in[18] *874:gpio_in[19] 0
8 *450:17 *567:15 0.00166262
9 *450:17 *567:21 0.001496
10 *450:17 *567:23 0.0133816
11 *450:17 *670:9 0.0885738
12 *450:17 *683:11 0.000676842
13 *450:17 *815:15 0.000650365
14 gpio_analog_en[18] *450:13 0
15 gpio_dm1[18] *450:13 0
16 *448:9 *450:17 0.00259077
*RES
1 gpio_in[18] *450:11 33.5893 
2 *450:11 *450:13 4042.18 
3 *450:13 *450:15 4.5 
4 *450:15 *450:17 883.161 
5 *450:17 *874:gpio_in[18] 7.14286 
*END

*D_NET *451 0.546198
*CONN
*P gpio_in[19] I
*I *874:gpio_in[19] I *D counter_gpio_config_example
*CAP
1 gpio_in[19] 0.00311219
2 *874:gpio_in[19] 0.000114607
3 *451:25 0.0308793
4 *451:23 0.0321731
5 *451:13 0.197567
6 *451:11 0.196159
7 *451:9 0.0289982
8 *451:7 0.0289982
9 *451:5 0.00311219
10 *874:gpio_in[19] *874:gpio_in[1] 9.84683e-05
11 *451:13 *453:17 0
12 *451:13 *472:25 0.00564374
13 *451:23 *472:15 2.08257e-05
14 *451:23 *472:25 0.00114755
15 *451:25 *472:15 0.0181733
16 *874:gpio_in[18] *874:gpio_in[19] 0
17 *97:17 *451:9 0
18 *236:13 *451:9 0
19 *282:29 *451:13 0
*RES
1 gpio_in[19] *451:5 63.8125 
2 *451:5 *451:7 3.41 
3 *451:7 *451:9 78.8519 
4 *451:9 *451:11 3.41 
5 *451:11 *451:13 582.104 
6 *451:13 *451:23 5.4238 
7 *451:23 *451:25 112.524 
8 *451:25 *874:gpio_in[19] 8.25189 
*END

*D_NET *452 0.310113
*CONN
*P gpio_in[1] I
*I *874:gpio_in[1] I *D counter_gpio_config_example
*CAP
1 gpio_in[1] 0.000113146
2 *874:gpio_in[1] 0.00209708
3 *452:11 0.0105209
4 *452:9 0.00842387
5 *452:7 0.135782
6 *452:5 0.135895
7 *874:gpio_in[1] *874:gpio_in[20] 0
8 *874:gpio_in[1] *483:15 0.000636624
9 *874:gpio_in[1] *683:11 0.00380077
10 *874:gpio_in[1] *700:9 0.000117122
11 *452:7 *760:21 0
12 *452:11 *463:11 0
13 *452:11 *760:17 0.0114811
14 *874:gpio_in[11] *874:gpio_in[1] 0.000459515
15 *874:gpio_in[19] *874:gpio_in[1] 9.84683e-05
16 *443:15 *874:gpio_in[1] 0.000281938
17 *447:13 *874:gpio_in[1] 0.00040522
*RES
1 gpio_in[1] *452:5 0.379917 
2 *452:5 *452:7 369.76 
3 *452:7 *452:9 3.41 
4 *452:9 *452:11 253.911 
5 *452:11 *874:gpio_in[1] 14.8766 
*END

*D_NET *453 0.55034
*CONN
*P gpio_in[20] I
*I *874:gpio_in[20] I *D counter_gpio_config_example
*CAP
1 gpio_in[20] 8.42969e-05
2 *874:gpio_in[20] 0.000130837
3 *453:17 0.166613
4 *453:15 0.18092
5 *453:9 0.0195211
6 *453:7 0.00516772
7 *874:gpio_in[20] *874:gpio_in[21] 0
8 *874:gpio_in[20] *683:11 5.26694e-05
9 *453:17 *454:13 0.0186571
10 *453:17 *472:15 0.00566162
11 *453:17 *472:25 0.00354001
12 *874:gpio_in[1] *874:gpio_in[20] 0
13 *240:21 *453:17 0.0534909
14 *282:29 *453:17 0.0965007
15 *368:61 *453:15 0
16 *451:13 *453:17 0
*RES
1 gpio_in[20] *453:7 1.60714 
2 *453:7 *453:9 99.6964 
3 *453:9 *453:15 46.3235 
4 *453:15 *453:17 692.407 
5 *453:17 *874:gpio_in[20] 8.25189 
*END

*D_NET *454 0.604854
*CONN
*P gpio_in[21] I
*I *874:gpio_in[21] I *D counter_gpio_config_example
*CAP
1 gpio_in[21] 0.000116927
2 *874:gpio_in[21] 0.000108238
3 *454:13 0.143164
4 *454:11 0.143173
5 *874:gpio_in[21] *874:gpio_in[22] 0
6 *874:gpio_in[21] *683:11 2.81967e-05
7 *454:11 gpio_oeb[21] 0.000213361
8 *454:13 *455:13 0.0504365
9 *874:gpio_in[20] *874:gpio_in[21] 0
10 *95:13 *454:11 0.000208744
11 *238:29 *454:13 0.0959564
12 *240:21 *454:13 0.152791
13 *453:17 *454:13 0.0186571
*RES
1 gpio_in[21] *454:11 8.43205 
2 *454:11 *454:13 709.879 
3 *454:13 *874:gpio_in[21] 8.17982 
*END

*D_NET *455 0.622106
*CONN
*P gpio_in[22] I
*I *874:gpio_in[22] I *D counter_gpio_config_example
*CAP
1 gpio_in[22] 0.00199469
2 *874:gpio_in[22] 0.000130837
3 *455:13 0.164057
4 *455:11 0.179343
5 *455:7 0.0174121
6 *874:gpio_in[22] *874:gpio_in[23] 0
7 *874:gpio_in[22] *683:11 5.26694e-05
8 *455:11 *538:13 0
9 *455:13 *456:19 0.0245912
10 *874:gpio_in[21] *874:gpio_in[22] 0
11 *238:29 *455:13 0.184088
12 *454:13 *455:13 0.0504365
*RES
1 gpio_in[22] *455:7 42.3296 
2 *455:7 *455:11 43.5621 
3 *455:11 *455:13 703.274 
4 *455:13 *874:gpio_in[22] 8.25189 
*END

*D_NET *456 0.554458
*CONN
*P gpio_in[23] I
*I *874:gpio_in[23] I *D counter_gpio_config_example
*CAP
1 gpio_in[23] 0.0021972
2 *874:gpio_in[23] 0.000107509
3 *456:19 0.155071
4 *456:17 0.154964
5 *456:15 0.0297309
6 *456:13 0.0297309
7 *456:11 0.0469824
8 *456:9 0.0491796
9 *874:gpio_in[23] *683:11 2.81967e-05
10 *456:11 *665:30 0.061875
11 *874:gpio_in[22] *874:gpio_in[23] 0
12 *108:25 *456:15 0
13 *455:13 *456:19 0.0245912
*RES
1 gpio_in[23] *456:9 42.9732 
2 *456:9 *456:11 1247.86 
3 *456:11 *456:13 3.41 
4 *456:13 *456:15 79.8608 
5 *456:15 *456:17 3.41 
6 *456:17 *456:19 483.815 
7 *456:19 *874:gpio_in[23] 8.17982 
*END

*D_NET *457 0.742046
*CONN
*P gpio_in[24] I
*I *874:gpio_in[24] I *D counter_gpio_config_example
*CAP
1 gpio_in[24] 0.00385579
2 *874:gpio_in[24] 0.000579928
3 *457:23 0.0100971
4 *457:21 0.0118697
5 *457:11 0.12643
6 *457:9 0.127933
7 *874:gpio_in[24] *874:gpio_in[25] 0
8 *457:9 gpio_slow_sel[24] 0
9 *457:11 *547:9 0.232137
10 *457:11 *550:9 0.0631504
11 *457:11 *731:21 0.002649
12 *457:11 *765:21 0.0442822
13 *457:21 *458:21 0.00904143
14 *457:21 *460:21 0.000346481
15 *457:21 *461:21 0.00838541
16 *457:21 *462:19 0.000681979
17 *457:23 *458:23 0.0555
18 *457:23 *461:21 0.000152412
19 *457:23 *462:19 0.00012071
20 *457:23 *669:9 0.0124544
21 *133:13 *457:23 0.000263857
22 *155:21 *457:23 0.0105378
23 *168:9 *457:21 2.11419e-05
24 *342:21 *457:23 4.3304e-06
25 *404:15 *457:23 0.0215525
26 *417:9 *457:11 0
*RES
1 gpio_in[24] *457:9 12.3596 
2 *457:9 *457:11 3932.59 
3 *457:11 *457:21 27.2823 
4 *457:21 *457:23 535.696 
5 *457:23 *874:gpio_in[24] 13.2143 
*END

*D_NET *458 0.533557
*CONN
*P gpio_in[25] I
*I *874:gpio_in[25] I *D counter_gpio_config_example
*CAP
1 gpio_in[25] 0.00429074
2 *874:gpio_in[25] 0.00060726
3 *458:23 0.008079
4 *458:21 0.00975705
5 *458:11 0.144507
6 *458:9 0.146512
7 *458:9 gpio_slow_sel[25] 0
8 *458:11 *467:13 0
9 *458:11 *690:17 0
10 *458:11 *777:13 0
11 *458:11 *820:13 0.080351
12 *458:21 *460:21 0.00977274
13 *458:21 *461:21 0.000391075
14 *458:23 *460:23 0.0542505
15 *458:23 *461:21 0.000603067
16 *874:gpio_in[24] *874:gpio_in[25] 0
17 *155:21 *458:23 0.00989494
18 *457:21 *458:21 0.00904143
19 *457:23 *458:23 0.0555
*RES
1 gpio_in[25] *458:9 13.3842 
2 *458:9 *458:11 3174.27 
3 *458:11 *458:21 28.265 
4 *458:21 *458:23 526.25 
5 *458:23 *874:gpio_in[25] 13.5179 
*END

*D_NET *459 0.514386
*CONN
*P gpio_in[26] I
*I *874:gpio_in[26] I *D counter_gpio_config_example
*CAP
1 gpio_in[26] 0.00511941
2 *874:gpio_in[26] 0.000104614
3 *459:23 0.0110472
4 *459:21 0.0124504
5 *459:11 0.147731
6 *459:9 0.151342
7 *459:9 *767:17 0
8 *459:11 *538:9 0
9 *459:21 *460:21 0.0014325
10 *459:21 *726:19 0.0044287
11 *459:23 *469:23 0.0514554
12 *459:23 *483:15 0.00696749
13 *459:23 *670:9 0.00165097
14 *459:23 *683:11 0.00189188
15 *459:23 *690:13 0.00349047
16 *459:23 *700:9 0.0049509
17 *459:23 *726:9 0.00152455
18 *459:23 *730:9 0.000525819
19 *459:23 *730:19 0.000650229
20 *459:23 *731:9 0.0296935
21 *327:9 *459:11 0.0777939
22 *332:9 *459:11 0
23 *433:16 *459:23 0.000135402
*RES
1 gpio_in[26] *459:9 15.2642 
2 *459:9 *459:11 2980.59 
3 *459:11 *459:21 22.3492 
4 *459:21 *459:23 560.339 
5 *459:23 *874:gpio_in[26] 6.23214 
*END

*D_NET *460 0.444611
*CONN
*P gpio_in[27] I
*I *874:gpio_in[27] I *D counter_gpio_config_example
*CAP
1 gpio_in[27] 0.00182451
2 *874:gpio_in[27] 0.00063648
3 *460:23 0.00822399
4 *460:21 0.0126472
5 *460:11 0.146221
6 *460:9 0.142986
7 *874:gpio_in[27] *874:gpio_in[28] 0
8 *460:21 *461:21 0.000166361
9 *460:21 *462:19 0.000544055
10 *460:21 *471:15 0.000385217
11 *460:21 *726:19 0.00173805
12 *460:21 *820:9 9.29581e-06
13 *460:21 *821:9 0.000342617
14 *460:23 *461:23 0.0514052
15 *460:23 *462:19 0.0114218
16 *123:9 *460:21 7.59861e-05
17 *309:13 *460:21 0.000181006
18 *457:21 *460:21 0.000346481
19 *458:21 *460:21 0.00977274
20 *458:23 *460:23 0.0542505
21 *459:21 *460:21 0.0014325
*RES
1 gpio_in[27] *460:9 7.41518 
2 *460:9 *460:11 2791.16 
3 *460:11 *460:21 35.6617 
4 *460:21 *460:23 514.339 
5 *460:23 *874:gpio_in[27] 13.8214 
*END

*D_NET *461 0.406531
*CONN
*P gpio_in[28] I
*I *874:gpio_in[28] I *D counter_gpio_config_example
*CAP
1 gpio_in[28] 0.0048187
2 *874:gpio_in[28] 0.000660334
3 *461:23 0.0165579
4 *461:21 0.018886
5 *461:11 0.134255
6 *461:9 0.136085
7 *874:gpio_in[28] *874:gpio_in[29] 0
8 *461:9 gpio_slow_sel[28] 0
9 *461:9 *769:9 0
10 *461:21 *462:19 0.0124039
11 *461:23 *462:19 0.0192999
12 *874:gpio_in[27] *874:gpio_in[28] 0
13 *133:13 *461:21 0.00205664
14 *155:19 *461:21 3.47641e-06
15 *309:13 *461:21 0.00038319
16 *332:9 *461:11 0
17 *384:9 *461:21 1.8038e-05
18 *457:21 *461:21 0.00838541
19 *457:23 *461:21 0.000152412
20 *458:21 *461:21 0.000391075
21 *458:23 *461:21 0.000603067
22 *460:21 *461:21 0.000166361
23 *460:23 *461:23 0.0514052
*RES
1 gpio_in[28] *461:9 14.578 
2 *461:9 *461:11 2596.27 
3 *461:11 *461:21 31.9098 
4 *461:21 *461:23 487.232 
5 *461:23 *874:gpio_in[28] 14.125 
*END

*D_NET *462 0.449151
*CONN
*P gpio_in[29] I
*I *874:gpio_in[29] I *D counter_gpio_config_example
*CAP
1 gpio_in[29] 0.00297952
2 *874:gpio_in[29] 0.000669952
3 *462:19 0.0191211
4 *462:17 0.0184511
5 *462:15 0.119473
6 *462:13 0.122452
7 *874:gpio_in[29] *874:gpio_in[2] 0
8 *462:15 gpio_inp_dis[37] 0.000444854
9 *462:15 gpio_oeb[32] 0
10 *462:15 gpio_out[31] 0
11 *462:15 gpio_vtrip_sel[31] 0.000749301
12 *462:15 *558:20 0
13 *462:19 *674:9 0.00211083
14 *462:19 *726:19 0
15 *462:19 *813:9 0.0496231
16 *462:19 *827:9 0.0147569
17 gpio_analog_en[30] *462:15 0.000201194
18 gpio_analog_en[33] *462:15 0.000152462
19 gpio_analog_sel[30] *462:15 0.000103722
20 gpio_dm0[35] *462:15 0.000103722
21 gpio_dm1[29] *462:13 0.000298659
22 gpio_holdover[30] *462:15 0.000201194
23 gpio_holdover[33] *462:15 0.000103722
24 *874:gpio_in[28] *874:gpio_in[29] 0
25 *133:13 *462:19 3.29849e-05
26 *155:21 *462:19 0.05265
27 *457:21 *462:19 0.000681979
28 *457:23 *462:19 0.00012071
29 *460:21 *462:19 0.000544055
30 *460:23 *462:19 0.0114218
31 *461:21 *462:19 0.0124039
32 *461:23 *462:19 0.0192999
*RES
1 gpio_in[29] *462:13 38.8004 
2 *462:13 *462:15 2374.64 
3 *462:15 *462:17 3.41 
4 *462:17 *462:19 112.543 
5 *462:19 *874:gpio_in[29] 13.1868 
*END

*D_NET *463 0.363603
*CONN
*P gpio_in[2] I
*I *874:gpio_in[2] I *D counter_gpio_config_example
*CAP
1 gpio_in[2] 0.000291702
2 *874:gpio_in[2] 0.00254424
3 *463:11 0.0181456
4 *463:9 0.0156014
5 *463:7 0.134736
6 *463:5 0.135028
7 *874:gpio_in[2] *874:gpio_in[30] 0
8 *874:gpio_in[2] *874:gpio_in[3] 0.00396916
9 *874:gpio_in[2] *683:11 0.000113277
10 *874:gpio_in[2] *760:15 4.47593e-05
11 *874:gpio_in[2] *771:9 0.00706176
12 *874:gpio_in[2] *782:27 0.00081294
13 *463:7 *557:11 0.00016195
14 *463:11 *549:13 0
15 *463:11 *557:13 1.65923e-05
16 *874:gpio_in[0] *463:7 0
17 *874:gpio_in[29] *874:gpio_in[2] 0
18 *126:13 *463:11 0.0247285
19 *335:13 *463:11 0.00210451
20 *337:13 *463:11 0.00136231
21 *345:9 *463:7 0
22 *378:13 *463:11 0.000106304
23 *394:9 *463:7 0.0167737
24 *422:13 *463:11 0
25 *452:11 *463:11 0
*RES
1 gpio_in[2] *463:5 0.90005 
2 *463:5 *463:7 369.111 
3 *463:7 *463:9 3.41 
4 *463:9 *463:11 454.875 
5 *463:11 *874:gpio_in[2] 24.11 
*END

*D_NET *464 0.392303
*CONN
*P gpio_in[30] I
*I *874:gpio_in[30] I *D counter_gpio_config_example
*CAP
1 gpio_in[30] 0.00571791
2 *874:gpio_in[30] 0.000114092
3 *464:19 0.0854641
4 *464:17 0.08535
5 *464:15 0.0392225
6 *464:13 0.0392225
7 *464:11 0.0182942
8 *464:9 0.0240121
9 *874:gpio_in[30] *874:gpio_in[31] 0
10 *874:gpio_in[30] *683:11 2.81967e-05
11 *464:19 *465:19 0.0107661
12 *464:19 *465:25 0.00547598
13 *464:19 *465:27 0.0169625
14 *464:19 *467:19 0
15 *874:gpio_in[2] *874:gpio_in[30] 0
16 *146:29 *464:19 0.00903954
17 *285:9 *464:11 0.00427364
18 *361:9 *464:11 0
19 *414:9 *464:11 0.0483594
*RES
1 gpio_in[30] *464:9 16.1415 
2 *464:9 *464:11 595.125 
3 *464:11 *464:13 3.41 
4 *464:13 *464:15 101.769 
5 *464:15 *464:17 3.41 
6 *464:17 *464:19 282.786 
7 *464:19 *874:gpio_in[30] 8.17982 
*END

*D_NET *465 0.367795
*CONN
*P gpio_in[31] I
*I *874:gpio_in[31] I *D counter_gpio_config_example
*CAP
1 gpio_in[31] 0.000294179
2 *874:gpio_in[31] 0.000141772
3 *465:27 0.0263393
4 *465:25 0.0322409
5 *465:19 0.0254093
6 *465:17 0.0193659
7 *465:15 0.0219791
8 *465:13 0.0219791
9 *465:11 0.0275717
10 *465:9 0.0275717
11 *465:7 0.0234376
12 *465:5 0.0237318
13 *874:gpio_in[31] *874:gpio_in[32] 0
14 *874:gpio_in[31] *683:11 5.26694e-05
15 *465:7 gpio_slow_sel[31] 0
16 *465:7 *773:17 0
17 *465:11 *667:5 0
18 *465:11 *721:13 0.0728664
19 *465:15 *481:17 0
20 *465:19 *466:19 0.00232147
21 *465:19 *467:19 0
22 *465:19 *542:25 0.00400024
23 *465:25 *466:19 0
24 *465:25 *466:25 0
25 *465:25 *466:27 0
26 *465:27 *466:27 0.0052876
27 *874:gpio_in[30] *874:gpio_in[31] 0
28 *464:19 *465:19 0.0107661
29 *464:19 *465:25 0.00547598
30 *464:19 *465:27 0.0169625
*RES
1 gpio_in[31] *465:5 0.987783 
2 *465:5 *465:7 56.8481 
3 *465:7 *465:9 3.41 
4 *465:9 *465:11 896.875 
5 *465:11 *465:13 3.41 
6 *465:13 *465:15 57.0157 
7 *465:15 *465:17 3.41 
8 *465:17 *465:19 67.6048 
9 *465:19 *465:25 23.1303 
10 *465:25 *465:27 104.957 
11 *465:27 *874:gpio_in[31] 8.25189 
*END

*D_NET *466 0.274329
*CONN
*P gpio_in[32] I
*I *874:gpio_in[32] I *D counter_gpio_config_example
*CAP
1 gpio_in[32] 0.000159804
2 *874:gpio_in[32] 0.000114092
3 *466:27 0.0284095
4 *466:25 0.0304202
5 *466:19 0.0163755
6 *466:17 0.0212074
7 *466:11 0.0221146
8 *466:9 0.0151579
9 *466:7 0.0378334
10 *466:5 0.0379932
11 *874:gpio_in[32] *874:gpio_in[33] 0
12 *874:gpio_in[32] *683:11 2.81967e-05
13 *466:7 *754:17 0.000726467
14 *466:7 *774:9 0
15 *466:11 *765:13 0.00572429
16 *466:11 *766:5 0.0200517
17 *466:17 *536:13 0
18 *466:17 *803:9 0
19 *466:19 *467:19 0.008741
20 *466:25 *467:19 0.00349187
21 *466:27 *467:19 0.0181711
22 *874:gpio_in[31] *874:gpio_in[32] 0
23 *465:19 *466:19 0.00232147
24 *465:25 *466:19 0
25 *465:25 *466:25 0
26 *465:25 *466:27 0
27 *465:27 *466:27 0.0052876
*RES
1 gpio_in[32] *466:5 0.536583 
2 *466:5 *466:7 95.692 
3 *466:7 *466:9 3.41 
4 *466:9 *466:11 446.982 
5 *466:11 *466:17 24.4152 
6 *466:17 *466:19 54.6109 
7 *466:19 *466:25 8.28453 
8 *466:25 *466:27 112.524 
9 *466:27 *874:gpio_in[32] 8.17982 
*END

*D_NET *467 0.255839
*CONN
*P gpio_in[33] I
*I *874:gpio_in[33] I *D counter_gpio_config_example
*CAP
1 gpio_in[33] 0.00474753
2 *874:gpio_in[33] 0.000141772
3 *467:19 0.0583098
4 *467:17 0.0581681
5 *467:15 0.0399603
6 *467:13 0.0447079
7 *874:gpio_in[33] *874:gpio_in[34] 0
8 *874:gpio_in[33] *683:11 5.26694e-05
9 *467:13 *548:9 0
10 *467:13 *818:9 3.01875e-05
11 *467:15 gpio_slow_sel[33] 0.000793589
12 *467:15 *746:9 0.00869356
13 *467:19 *468:19 0.00924875
14 gpio_dm1[33] *467:15 0.000580972
15 *874:gpio_in[32] *874:gpio_in[33] 0
16 *373:15 *467:15 0
17 *458:11 *467:13 0
18 *464:19 *467:19 0
19 *465:19 *467:19 0
20 *466:19 *467:19 0.008741
21 *466:25 *467:19 0.00349187
22 *466:27 *467:19 0.0181711
*RES
1 gpio_in[33] *467:13 30.9071 
2 *467:13 *467:15 104.219 
3 *467:15 *467:17 3.41 
4 *467:17 *467:19 216.949 
5 *467:19 *874:gpio_in[33] 8.25189 
*END

*D_NET *468 0.234763
*CONN
*P gpio_in[34] I
*I *874:gpio_in[34] I *D counter_gpio_config_example
*CAP
1 gpio_in[34] 0.000277382
2 *874:gpio_in[34] 0.000111713
3 *468:19 0.0604307
4 *468:17 0.060319
5 *468:15 0.0171716
6 *468:13 0.0172752
7 *468:7 0.0234221
8 *468:5 0.0235959
9 *874:gpio_in[34] *683:11 2.81967e-05
10 *468:7 gpio_slow_sel[34] 0
11 *468:7 *776:9 0
12 *468:13 *721:13 0
13 *468:13 *789:5 0.000257131
14 *468:15 *568:9 0.0224262
15 *468:15 *776:9 6.20381e-05
16 *874:gpio_in[33] *874:gpio_in[34] 0
17 *190:33 *468:19 0.00013668
18 *467:19 *468:19 0.00924875
*RES
1 gpio_in[34] *468:5 0.931383 
2 *468:5 *468:7 56.2715 
3 *468:7 *468:13 9.98071 
4 *468:13 *468:15 56.0068 
5 *468:15 *468:17 3.41 
6 *468:17 *468:19 184.456 
7 *468:19 *874:gpio_in[34] 8.17982 
*END

*D_NET *469 0.244173
*CONN
*P gpio_in[35] I
*I *874:gpio_in[35] I *D counter_gpio_config_example
*CAP
1 gpio_in[35] 0.00877405
2 *874:gpio_in[35] 0.000123852
3 *469:23 0.00786197
4 *469:21 0.00987419
5 *469:11 0.0443511
6 *469:9 0.0509891
7 *469:21 *690:13 0.000536265
8 *469:21 *726:9 0.000103646
9 *469:21 *730:19 0.00337178
10 *469:21 *778:13 0
11 *469:23 *567:15 0.00585055
12 *469:23 *670:9 0.0109214
13 *469:23 *683:11 0.00247942
14 *469:23 *690:13 0.00597515
15 *469:23 *727:19 0.000297026
16 *469:23 *730:9 0.0245125
17 *123:9 *469:21 3.00538e-05
18 *150:9 *469:11 0.016666
19 *183:9 *469:11 0
20 *191:9 *469:11 0
21 *272:9 *469:11 0
22 *314:9 *469:11 0
23 *459:23 *469:23 0.0514554
*RES
1 gpio_in[35] *469:9 22.8939 
2 *469:9 *469:11 863.482 
3 *469:11 *469:21 19.3135 
4 *469:21 *469:23 488.464 
5 *469:23 *874:gpio_in[35] 6.53571 
*END

*D_NET *470 0.229878
*CONN
*P gpio_in[36] I
*I *874:gpio_in[36] I *D counter_gpio_config_example
*CAP
1 gpio_in[36] 0.0114374
2 *874:gpio_in[36] 0.000373666
3 *470:15 0.0148312
4 *470:13 0.0144575
5 *470:11 0.015971
6 *470:9 0.0274083
7 *874:gpio_in[36] *874:gpio_in[37] 0
8 *470:11 *731:19 0
9 *470:11 *821:13 0.0301792
10 *470:15 *874:gpio_in[3] 0.000942954
11 *470:15 *471:15 0.00484947
12 *470:15 *690:11 6.90116e-05
13 *470:15 *690:13 0.000974288
14 *470:15 *738:15 0.0081967
15 *470:15 *771:9 0.00367483
16 *470:15 *777:9 0.000517579
17 *470:15 *778:11 0.0202089
18 *470:15 *782:15 0.00318102
19 *470:15 *820:9 0.00325053
20 *470:15 *821:9 0.043377
21 *95:9 *470:11 0.0159728
22 *96:9 *470:11 0.00418837
23 *197:9 *470:11 0.0019655
24 *249:9 *470:11 0.00252748
25 *274:9 *470:11 0
26 *325:9 *470:11 0.001323
*RES
1 gpio_in[36] *470:9 28.233 
2 *470:9 *470:11 676.482 
3 *470:11 *470:13 3.41 
4 *470:13 *470:15 86.6711 
5 *470:15 *874:gpio_in[36] 8.93679 
*END

*D_NET *471 0.19942
*CONN
*P gpio_in[37] I
*I *874:gpio_in[37] I *D counter_gpio_config_example
*CAP
1 gpio_in[37] 0.00785612
2 *874:gpio_in[37] 0.000445884
3 *471:15 0.015543
4 *471:13 0.0150971
5 *471:11 0.0184082
6 *471:9 0.0262643
7 *874:gpio_in[37] *874:gpio_in[39] 0
8 *471:9 gpio_slow_sel[37] 0.0154482
9 *471:11 *731:19 0
10 *471:15 *874:gpio_in[3] 0.000645624
11 *471:15 *821:9 0.0428337
12 *874:gpio_in[36] *874:gpio_in[37] 0
13 *123:9 *471:11 0
14 *154:9 *471:11 0.00195994
15 *155:19 *471:15 0.000293637
16 *157:7 *471:9 0.00107107
17 *204:9 *471:11 0.00458599
18 *274:9 *471:11 0
19 *309:9 *471:11 0.00188318
20 *309:13 *471:15 0.0270375
21 *342:19 *471:15 4.88232e-05
22 *377:9 *471:11 0.0147631
23 *460:21 *471:15 0.000385217
24 *470:15 *471:15 0.00484947
*RES
1 gpio_in[37] *471:9 29.8812 
2 *471:9 *471:11 480.375 
3 *471:11 *471:13 3.41 
4 *471:13 *471:15 85.3019 
5 *471:15 *874:gpio_in[37] 10.1511 
*END

*D_NET *472 0.146087
*CONN
*P gpio_in[38] I
*I *874:gpio_in[38] I *D counter_gpio_config_example
*CAP
1 gpio_in[38] 0.000218453
2 *874:gpio_in[38] 0.00102053
3 *472:25 0.0117231
4 *472:15 0.0412161
5 *472:13 0.0320874
6 *472:7 0.0104975
7 *472:5 0.00914209
8 *874:gpio_in[38] *740:18 0.000561129
9 *874:gpio_in[38] *826:14 0.00121015
10 *472:7 gpio_slow_sel[38] 0
11 *472:13 *477:11 0.000663549
12 *410:19 *874:gpio_in[38] 0.00275678
13 *428:15 *472:13 0.000802781
14 *451:13 *472:25 0.00564374
15 *451:23 *472:15 2.08257e-05
16 *451:23 *472:25 0.00114755
17 *451:25 *472:15 0.0181733
18 *453:17 *472:15 0.00566162
19 *453:17 *472:25 0.00354001
*RES
1 gpio_in[38] *472:5 4.59821 
2 *472:5 *472:7 178.196 
3 *472:7 *472:13 12.7404 
4 *472:13 *472:15 117.957 
5 *472:15 *472:25 47.7999 
6 *472:25 *874:gpio_in[38] 4.50103 
*END

*D_NET *473 0.10711
*CONN
*P gpio_in[39] I
*I *874:gpio_in[39] I *D counter_gpio_config_example
*CAP
1 gpio_in[39] 0.000264265
2 *874:gpio_in[39] 0.0048006
3 *473:13 0.0048006
4 *473:11 0.025403
5 *473:9 0.025403
6 *473:7 0.00605467
7 *473:5 0.00631893
8 *874:gpio_in[39] *874:gpio_in[3] 0
9 *473:11 *741:9 0
10 *874:gpio_in[37] *874:gpio_in[39] 0
11 *212:13 *473:5 0.000229619
12 *258:17 *473:11 0.0338354
*RES
1 gpio_in[39] *473:5 5.5625 
2 *473:5 *473:7 120.518 
3 *473:7 *473:9 3.41 
4 *473:9 *473:11 87.7521 
5 *473:11 *473:13 3.41 
6 *473:13 *874:gpio_in[39] 89.9196 
*END

*D_NET *474 0.424405
*CONN
*P gpio_in[3] I
*I *874:gpio_in[3] I *D counter_gpio_config_example
*CAP
1 gpio_in[3] 0.000215794
2 *874:gpio_in[3] 0.00456739
3 *474:11 0.0210533
4 *474:9 0.0164859
5 *474:7 0.128011
6 *474:5 0.128227
7 *874:gpio_in[3] *874:gpio_in[40] 0
8 *874:gpio_in[3] *683:11 0
9 *874:gpio_in[3] *771:9 0.000728462
10 *474:11 *672:13 0.0265724
11 *474:11 *782:29 0.0524939
12 *874:gpio_in[2] *874:gpio_in[3] 0.00396916
13 *874:gpio_in[39] *874:gpio_in[3] 0
14 *254:15 *474:7 0.00316169
15 *278:13 *474:11 0
16 *309:13 *874:gpio_in[3] 0.00347388
17 *315:9 *474:7 0
18 *319:9 *474:7 0.0338574
19 *470:15 *874:gpio_in[3] 0.000942954
20 *471:15 *874:gpio_in[3] 0.000645624
*RES
1 gpio_in[3] *474:5 0.724583 
2 *474:5 *474:7 367.958 
3 *474:7 *474:9 3.41 
4 *474:9 *474:11 658.875 
5 *474:11 *874:gpio_in[3] 31.5221 
*END

*D_NET *475 0.163403
*CONN
*P gpio_in[40] I
*I *874:gpio_in[40] I *D counter_gpio_config_example
*CAP
1 gpio_in[40] 0.000179429
2 *874:gpio_in[40] 0.0054474
3 *475:13 0.0054474
4 *475:11 0.0339902
5 *475:9 0.0339902
6 *475:7 0.00560946
7 *475:5 0.00578889
8 *874:gpio_in[40] *874:gpio_in[41] 0
9 *874:gpio_in[40] *738:15 6.75178e-05
10 *475:11 *560:15 0
11 *874:gpio_in[3] *874:gpio_in[40] 0
12 *213:17 *475:11 0.0653007
13 *384:13 *475:11 0.00758146
14 *390:17 *475:11 0
*RES
1 gpio_in[40] *475:5 3.77679 
2 *475:5 *475:7 108.375 
3 *475:7 *475:9 3.41 
4 *475:9 *475:11 132.001 
5 *475:11 *475:13 3.41 
6 *475:13 *874:gpio_in[40] 102.062 
*END

*D_NET *476 0.152639
*CONN
*P gpio_in[41] I
*I *874:gpio_in[41] I *D counter_gpio_config_example
*CAP
1 gpio_in[41] 0.00236907
2 *874:gpio_in[41] 0.00846173
3 *476:13 0.00846173
4 *476:11 0.0654887
5 *476:9 0.0654887
6 *476:7 0.00236907
7 *874:gpio_in[41] *874:gpio_in[42] 0
8 *476:11 *566:10 0
9 *476:11 *824:16 0
10 *476:11 *830:9 0
11 *874:gpio_in[40] *874:gpio_in[41] 0
12 *121:17 *476:11 0
*RES
1 gpio_in[41] *476:7 47.8304 
2 *476:7 *476:9 3.41 
3 *476:9 *476:11 175.746 
4 *476:11 *476:13 3.41 
5 *476:13 *874:gpio_in[41] 164.598 
*END

*D_NET *477 0.194183
*CONN
*P gpio_in[42] I
*I *874:gpio_in[42] I *D counter_gpio_config_example
*CAP
1 gpio_in[42] 9.75616e-06
2 *874:gpio_in[42] 0.00176259
3 *477:11 0.0828518
4 *477:9 0.0810892
5 *477:7 0.00887959
6 *477:5 0.00888934
7 *874:gpio_in[42] *874:gpio_in[43] 0
8 *477:11 *695:14 0
9 *477:11 *711:19 0.0100372
10 *477:11 *717:9 0
11 *874:gpio_in[41] *874:gpio_in[42] 0
12 *388:17 *477:11 0
13 *428:15 *477:11 0
14 *472:13 *477:11 0.000663549
*RES
1 gpio_in[42] *477:5 0.205357 
2 *477:5 *477:7 181.232 
3 *477:7 *477:9 3.41 
4 *477:9 *477:11 219.49 
5 *477:11 *874:gpio_in[42] 32.6154 
*END

*D_NET *478 0.222179
*CONN
*P gpio_in[43] I
*I *874:gpio_in[43] I *D counter_gpio_config_example
*CAP
1 gpio_in[43] 0.000420703
2 *874:gpio_in[43] 0.0102812
3 *478:11 0.0102812
4 *478:9 0.0984463
5 *478:7 0.098867
6 *874:gpio_in[43] *874:gpio_in[4] 0
7 *478:9 *565:13 0
8 *478:9 *828:13 0
9 gpio_dm0[41] *478:9 6.27788e-05
10 gpio_ib_mode_sel[39] *478:9 0
11 *874:gpio_in[42] *874:gpio_in[43] 0
12 *257:19 *478:9 0.0038203
13 *345:23 *478:9 0
*RES
1 gpio_in[43] *478:7 12.1511 
2 *478:7 *478:9 262.946 
3 *478:9 *478:11 3.41 
4 *478:11 *874:gpio_in[43] 201.634 
*END

*D_NET *479 0.562171
*CONN
*P gpio_in[4] I
*I *874:gpio_in[4] I *D counter_gpio_config_example
*CAP
1 gpio_in[4] 0.000127191
2 *874:gpio_in[4] 0.00026623
3 *479:15 0.00271041
4 *479:13 0.00244418
5 *479:11 0.0307007
6 *479:9 0.0307007
7 *479:7 0.081906
8 *479:5 0.0820332
9 *874:gpio_in[4] *874:gpio_in[5] 0
10 *479:11 *531:13 0.0008618
11 *479:11 *533:13 0.000906115
12 *479:11 *561:13 0.00649391
13 *479:11 *716:23 0.0442732
14 *479:15 *567:21 0.000844694
15 *479:15 *567:23 0.000596149
16 *479:15 *727:21 0.0113537
17 *479:15 *738:17 0.012649
18 *479:15 *771:9 0.0017748
19 *874:gpio_in[43] *874:gpio_in[4] 0
20 *148:13 *479:11 0
21 *149:13 *479:11 0
22 *205:13 *479:11 0
23 *216:9 *479:7 0.036634
24 *282:13 *479:11 0
25 *351:9 *479:7 0.214895
*RES
1 gpio_in[4] *479:5 0.39245 
2 *479:5 *479:7 364.787 
3 *479:7 *479:9 3.41 
4 *479:9 *479:11 859.384 
5 *479:11 *479:13 4.5 
6 *479:13 *479:15 138.125 
7 *479:15 *874:gpio_in[4] 8.35714 
*END

*D_NET *480 0.425441
*CONN
*P gpio_in[5] I
*I *874:gpio_in[5] I *D counter_gpio_config_example
*CAP
1 gpio_in[5] 0.00386399
2 *874:gpio_in[5] 0.000141772
3 *480:19 0.0541893
4 *480:17 0.0540475
5 *480:15 0.143144
6 *480:13 0.143144
7 *480:11 0.00256778
8 *480:9 0.00643177
9 *874:gpio_in[5] *874:gpio_in[6] 0
10 *874:gpio_in[5] *683:11 5.26694e-05
11 *480:9 *568:9 0
12 *480:11 *700:13 0.00683622
13 *480:19 *481:19 0.00208448
14 *480:19 *481:25 0.00365053
15 *480:19 *481:27 0.00528575
16 *874:gpio_in[4] *874:gpio_in[5] 0
17 *228:13 *480:15 0
18 *229:13 *480:15 0
*RES
1 gpio_in[5] *480:9 12.2703 
2 *480:9 *480:11 83.9107 
3 *480:11 *480:13 3.41 
4 *480:13 *480:15 381.604 
5 *480:15 *480:17 3.41 
6 *480:17 *480:19 170.287 
7 *480:19 *874:gpio_in[5] 8.25189 
*END

*D_NET *481 0.447844
*CONN
*P gpio_in[6] I
*I *874:gpio_in[6] I *D counter_gpio_config_example
*CAP
1 gpio_in[6] 0.000219526
2 *874:gpio_in[6] 0.000111713
3 *481:27 0.0336719
4 *481:25 0.0398764
5 *481:19 0.0294818
6 *481:17 0.0332486
7 *481:11 0.016866
8 *481:9 0.00678304
9 *481:7 0.136754
10 *481:5 0.136974
11 *874:gpio_in[6] *683:11 2.81967e-05
12 *481:7 *668:9 0
13 *481:11 *531:13 0.00257126
14 *481:11 *533:21 0
15 *874:gpio_in[5] *874:gpio_in[6] 0
16 *122:193 *481:25 0.000236341
17 *149:13 *481:11 0
18 *465:15 *481:17 0
19 *480:19 *481:19 0.00208448
20 *480:19 *481:25 0.00365053
21 *480:19 *481:27 0.00528575
*RES
1 gpio_in[6] *481:5 0.737117 
2 *481:5 *481:7 364.787 
3 *481:7 *481:9 3.41 
4 *481:9 *481:11 139.161 
5 *481:11 *481:17 32.0543 
6 *481:17 *481:19 68.6701 
7 *481:19 *481:25 23.1303 
8 *481:25 *481:27 104.957 
9 *481:27 *874:gpio_in[6] 8.17982 
*END

*D_NET *482 0.838024
*CONN
*P gpio_in[7] I
*I *874:gpio_in[7] I *D counter_gpio_config_example
*CAP
1 gpio_in[7] 0.00276335
2 *874:gpio_in[7] 0.00048306
3 *482:15 0.0293358
4 *482:13 0.0288527
5 *482:11 0.0845186
6 *482:9 0.0872819
7 *482:9 gpio_slow_sel[7] 0
8 *482:9 *790:9 0
9 *482:11 *744:13 0.0892176
10 *482:15 *484:15 0.230406
11 *309:13 *482:15 0.0534629
12 *342:21 *482:15 0.231702
*RES
1 gpio_in[7] *482:9 9.39702 
2 *482:9 *482:11 2058.49 
3 *482:11 *482:13 4.5 
4 *482:13 *482:15 2192.11 
5 *482:15 *874:gpio_in[7] 12 
*END

*D_NET *483 0.974874
*CONN
*P gpio_in[8] I
*I *874:gpio_in[8] I *D counter_gpio_config_example
*CAP
1 gpio_in[8] 0.00385498
2 *874:gpio_in[8] 8.04716e-05
3 *483:15 0.0310148
4 *483:13 0.0309344
5 *483:11 0.0359116
6 *483:9 0.0397665
7 *483:11 *484:11 0.182759
8 *483:11 *700:13 0.0910699
9 *483:11 *835:21 0.0604449
10 *483:15 *670:9 0.0012234
11 *483:15 *683:11 0.000466761
12 *483:15 *700:9 0.230675
13 gpio_ib_mode_sel[4] *483:11 0.00257489
14 *874:gpio_in[1] *483:15 0.000636624
15 *89:13 *483:11 0.00845409
16 *188:13 *483:11 0.00158223
17 *348:13 *483:11 0.00143976
18 *443:15 *483:15 0.0362175
19 *447:13 *483:15 0.208635
20 *448:9 *483:15 0.000163818
21 *459:23 *483:15 0.00696749
*RES
1 gpio_in[8] *483:9 12.2703 
2 *483:9 *483:11 2249.74 
3 *483:11 *483:13 4.5 
4 *483:13 *483:15 2183.07 
5 *483:15 *874:gpio_in[8] 5.92857 
*END

*D_NET *484 0.926315
*CONN
*P gpio_in[9] I
*I *874:gpio_in[9] I *D counter_gpio_config_example
*CAP
1 gpio_in[9] 0.00373236
2 *874:gpio_in[9] 0.00050015
3 *484:15 0.0410106
4 *484:13 0.0405104
5 *484:11 0.0785317
6 *484:9 0.0822641
7 *484:9 gpio_slow_sel[9] 0
8 *484:11 *835:21 0.00276617
9 *89:13 *484:11 0.00981957
10 *309:13 *484:15 0.0636124
11 *342:21 *484:15 0.00032984
12 *348:13 *484:11 0.0261507
13 *404:15 *484:15 0.163922
14 *482:15 *484:15 0.230406
15 *483:11 *484:11 0.182759
*RES
1 gpio_in[9] *484:9 11.9037 
2 *484:9 *484:11 2459.51 
3 *484:11 *484:13 4.5 
4 *484:13 *484:15 2185.54 
5 *484:15 *874:gpio_in[9] 12.3036 
*END

*D_NET *529 0.506612
*CONN
*P gpio_inp_dis[0] O
*I *874:gpio_inp_dis[0] O *D counter_gpio_config_example
*CAP
1 gpio_inp_dis[0] 0.00130521
2 *874:gpio_inp_dis[0] 0.00316247
3 *529:17 0.00473954
4 *529:15 0.00343433
5 *529:13 0.115833
6 *529:11 0.115833
7 *529:9 0.0194837
8 *529:7 0.0226462
9 *529:9 *691:13 0
10 *529:13 *564:10 0
11 *529:13 *674:9 0.0314696
12 *529:13 *701:9 0.0575376
13 *529:13 *714:19 8.78429e-05
14 *529:13 *813:9 0.00580831
15 *529:13 *819:9 0.025934
16 *529:13 *827:9 0.0378153
17 *529:13 *832:9 0
18 *529:17 *833:13 0
19 gpio_analog_pol[0] gpio_inp_dis[0] 0.000971318
20 *133:13 *529:13 2.551e-05
21 *133:17 *529:17 0.00376931
22 *155:21 *529:13 0.0329079
23 *168:9 *529:9 0.0219889
24 *173:7 *529:7 0.00068257
25 *207:7 *529:7 0.00068257
26 *309:17 *529:17 0
27 *349:9 *529:9 0.00049359
*RES
1 *874:gpio_inp_dis[0] *529:7 11.3969 
2 *529:7 *529:9 524.696 
3 *529:9 *529:11 3.41 
4 *529:11 *529:13 469.417 
5 *529:13 *529:15 3.41 
6 *529:15 *529:17 92.4107 
7 *529:17 gpio_inp_dis[0] 6.91542 
*END

*D_NET *530 0.534996
*CONN
*P gpio_inp_dis[10] O
*I *874:gpio_inp_dis[10] O *D counter_gpio_config_example
*CAP
1 gpio_inp_dis[10] 2.63618e-05
2 *874:gpio_inp_dis[10] 0.000148553
3 *530:17 0.0874766
4 *530:15 0.0874503
5 *530:13 0.128223
6 *530:11 0.128223
7 *530:9 0.0439046
8 *530:7 0.0440532
9 gpio_analog_pol[10] *530:17 0
10 *138:7 *530:7 0
11 *138:7 *530:9 0
12 *138:9 *530:9 0
13 *178:21 *530:17 0
14 *181:7 *530:7 4.72078e-05
15 *181:9 *530:7 6.89453e-06
16 *181:9 *530:9 0.015403
17 *222:17 *530:17 0
18 *236:7 *530:7 3.38962e-05
*RES
1 *874:gpio_inp_dis[10] *530:7 0.556167 
2 *530:7 *530:9 137.55 
3 *530:9 *530:11 3.41 
4 *530:11 *530:13 375.897 
5 *530:13 *530:15 3.41 
6 *530:15 *530:17 233.013 
7 *530:17 gpio_inp_dis[10] 0.0885167 
*END

*D_NET *531 0.745021
*CONN
*P gpio_inp_dis[11] O
*I *874:gpio_inp_dis[11] O *D counter_gpio_config_example
*CAP
1 gpio_inp_dis[11] 0.00289602
2 *874:gpio_inp_dis[11] 0.00275296
3 *531:17 0.0956615
4 *531:15 0.0927655
5 *531:13 0.0882207
6 *531:11 0.0909736
7 *531:13 *716:23 0.000799822
8 *106:11 *531:11 0.000383304
9 *109:13 *531:13 0
10 *135:15 gpio_inp_dis[11] 0.00078048
11 *135:15 *531:17 0.222715
12 *148:11 *531:11 0
13 *156:13 *531:13 0.113059
14 *313:9 *531:11 0
15 *326:21 *531:13 0
16 *415:13 *531:13 0.0305093
17 *427:11 *531:11 7.11587e-05
18 *479:11 *531:13 0.0008618
19 *481:11 *531:13 0.00257126
*RES
1 *874:gpio_inp_dis[11] *531:11 9.47713 
2 *531:11 *531:13 366.415 
3 *531:13 *531:15 3.41 
4 *531:15 *531:17 358.507 
5 *531:17 gpio_inp_dis[11] 7.09152 
*END

*D_NET *532 0.741464
*CONN
*P gpio_inp_dis[12] O
*I *874:gpio_inp_dis[12] O *D counter_gpio_config_example
*CAP
1 gpio_inp_dis[12] 8.23515e-05
2 *874:gpio_inp_dis[12] 0.00495713
3 *532:23 0.171301
4 *532:21 0.171218
5 *532:19 0.0830964
6 *532:17 0.0880535
7 *532:17 *534:16 0.000130143
8 *532:17 *571:12 0.000130143
9 *532:17 *664:18 0.000365404
10 *532:17 *665:20 0.000808321
11 *532:17 *665:22 0.000365404
12 gpio_analog_pol[12] *532:23 0.000537699
13 *129:9 *532:17 0.00342743
14 *129:9 *532:19 0.00293873
15 *135:11 *532:17 0.000222486
16 *139:9 *532:19 0
17 *142:9 *532:19 0.0260974
18 *143:9 *532:19 0.00341636
19 *144:8 *532:17 0.000476469
20 *147:19 *532:19 0.0014199
21 *190:9 *532:19 0.000940834
22 *224:13 *532:23 0
23 *225:9 *532:19 0
24 *266:15 *532:17 0
25 *271:7 *532:17 0.0001965
26 *288:7 *532:17 1.74439e-05
27 *302:9 *532:19 0.00166246
28 *309:7 *532:17 0.000111409
29 *324:17 *532:19 0.173679
30 *344:17 *532:17 1.8769e-06
31 *391:9 *532:19 0.00581028
32 *433:10 *532:17 0
*RES
1 *874:gpio_inp_dis[12] *532:17 26.4575 
2 *532:17 *532:19 2656.38 
3 *532:19 *532:21 3.41 
4 *532:21 *532:23 465.465 
5 *532:23 gpio_inp_dis[12] 0.276517 
*END

*D_NET *533 0.823015
*CONN
*P gpio_inp_dis[13] O
*I *874:gpio_inp_dis[13] O *D counter_gpio_config_example
*CAP
1 gpio_inp_dis[13] 0.00167987
2 *874:gpio_inp_dis[13] 0.00178834
3 *533:25 0.0867311
4 *533:23 0.0850512
5 *533:21 0.128781
6 *533:19 0.128969
7 *533:13 0.0224464
8 *533:11 0.0240466
9 *533:11 *771:19 0.00324527
10 *533:13 *561:13 0.000333729
11 *533:21 *544:13 0.00914894
12 *533:21 *716:23 0
13 gpio_analog_pol[13] gpio_inp_dis[13] 0.0002641
14 gpio_analog_pol[13] *533:25 0.013964
15 *109:13 *533:13 0
16 *109:13 *533:21 0.000623032
17 *156:13 *533:13 0.00104902
18 *225:13 *533:25 0.227901
19 *246:27 *533:13 0.000918736
20 *313:9 *533:19 0
21 *326:21 *533:21 0.0836086
22 *370:11 *533:11 7.47161e-05
23 *400:11 *533:11 0.00049432
24 *415:13 *533:13 0.000989479
25 *446:11 *533:21 0
26 *479:11 *533:13 0.000906115
27 *481:11 *533:21 0
*RES
1 *874:gpio_inp_dis[13] *533:11 9.7785 
2 *533:11 *533:13 58.4273 
3 *533:13 *533:19 7.33543 
4 *533:19 *533:21 2686.73 
5 *533:21 *533:23 3.41 
6 *533:23 *533:25 361.101 
7 *533:25 gpio_inp_dis[13] 14.0807 
*END

*D_NET *534 0.795599
*CONN
*P gpio_inp_dis[14] O
*I *874:gpio_inp_dis[14] O *D counter_gpio_config_example
*CAP
1 gpio_inp_dis[14] 0.00128706
2 *874:gpio_inp_dis[14] 0.014588
3 *534:34 0.172031
4 *534:32 0.170744
5 *534:30 0.169352
6 *534:28 0.173223
7 *534:16 0.0184583
8 *534:16 *558:18 0.00240537
9 *534:16 *571:16 0.00681903
10 *534:16 *662:27 0
11 *534:28 *571:16 2.08257e-05
12 *534:28 *571:20 0.00532713
13 *534:28 *571:22 2.32437e-05
14 *534:28 *662:27 0
15 *534:30 *571:22 0.0445601
16 *534:30 *662:27 0
17 *534:34 *806:19 0
18 gpio_analog_pol[14] gpio_inp_dis[14] 0.00194127
19 gpio_analog_pol[14] *534:34 0.0144169
20 gpio_dm0[14] *534:34 0
21 *122:131 *534:28 0.000271058
22 *433:10 *534:16 0
23 *532:17 *534:16 0.000130143
*RES
1 *874:gpio_inp_dis[14] *534:16 48.3172 
2 *534:16 *534:28 15.9925 
3 *534:28 *534:30 553.61 
4 *534:30 *534:32 3.41 
5 *534:32 *534:34 455.256 
6 *534:34 gpio_inp_dis[14] 11.7462 
*END

*D_NET *535 0.729474
*CONN
*P gpio_inp_dis[15] O
*I *874:gpio_inp_dis[15] O *D counter_gpio_config_example
*CAP
1 gpio_inp_dis[15] 8.42969e-05
2 *874:gpio_inp_dis[15] 0.0012252
3 *535:17 0.147645
4 *535:15 0.147561
5 *535:13 0.16256
6 *535:11 0.16256
7 *535:9 0.00947727
8 *535:7 0.0107025
9 *535:7 gpio_inp_dis[37] 0.00019407
10 *535:9 *666:17 0
11 *535:13 gpio_out[34] 0.00149123
12 *535:13 *763:11 0
13 *535:13 *788:9 0
14 *535:13 *803:9 0
15 *535:13 *814:19 0
16 gpio_analog_pol[15] gpio_inp_dis[15] 0
17 gpio_analog_pol[15] *535:17 0
18 *139:17 *535:17 0
19 *154:7 *535:7 0.00019407
20 *317:9 *535:9 0.0393198
21 *323:9 *535:9 0.0370143
22 *324:9 *535:9 0.0017092
23 *350:15 *535:9 0.00668595
24 *352:17 *535:9 0
25 *359:9 *535:9 0.001049
26 *380:17 *535:13 0
*RES
1 *874:gpio_inp_dis[15] *535:7 6.20807 
2 *535:7 *535:9 553.839 
3 *535:9 *535:11 3.41 
4 *535:11 *535:13 435.258 
5 *535:13 *535:15 3.41 
6 *535:15 *535:17 3038.27 
7 *535:17 gpio_inp_dis[15] 1.60714 
*END

*D_NET *536 0.719234
*CONN
*P gpio_inp_dis[16] O
*I *874:gpio_inp_dis[16] O *D counter_gpio_config_example
*CAP
1 gpio_inp_dis[16] 0.148489
2 *874:gpio_inp_dis[16] 0.00180606
3 *536:15 0.148489
4 *536:13 0.130012
5 *536:11 0.130012
6 *536:9 0.0120782
7 *536:7 0.0138843
8 *536:9 *537:9 0.0512728
9 *536:9 *569:21 0
10 *536:13 *685:11 0
11 *536:13 *688:25 0
12 *536:13 *721:11 0.0216782
13 *536:13 *816:11 0.00946086
14 gpio_analog_pol[16] gpio_inp_dis[16] 0
15 *93:17 *536:9 0
16 *95:7 *536:7 0.00029356
17 *178:15 *536:7 0
18 *359:13 *536:13 0
19 *407:9 *536:9 0.0517578
20 *466:17 *536:13 0
*RES
1 *874:gpio_inp_dis[16] *536:7 7.4332 
2 *536:7 *536:9 678.304 
3 *536:9 *536:11 3.41 
4 *536:11 *536:13 356.705 
5 *536:13 *536:15 3.41 
6 *536:15 gpio_inp_dis[16] 3057.63 
*END

*D_NET *537 0.646447
*CONN
*P gpio_inp_dis[17] O
*I *874:gpio_inp_dis[17] O *D counter_gpio_config_example
*CAP
1 gpio_inp_dis[17] 0.150363
2 *874:gpio_inp_dis[17] 0.0017499
3 *537:15 0.150363
4 *537:13 0.120481
5 *537:11 0.120481
6 *537:9 0.0217713
7 *537:7 0.0235212
8 *537:13 *687:11 0
9 *537:13 *770:11 0
10 *537:13 *772:11 0.00491652
11 gpio_analog_pol[17] gpio_inp_dis[17] 0
12 *93:17 *537:9 0
13 *141:13 *537:13 0
14 *229:7 *537:7 0.000160632
15 *249:7 *537:7 0.000302876
16 *324:15 *537:13 0.000167289
17 *374:7 *537:7 0
18 *406:13 *537:13 0
19 *407:9 *537:9 0.00089689
20 *407:13 *537:13 0
21 *431:9 *537:9 0
22 *536:9 *537:9 0.0512728
*RES
1 *874:gpio_inp_dis[17] *537:7 7.50527 
2 *537:7 *537:9 662.518 
3 *537:9 *537:11 3.41 
4 *537:11 *537:13 316.492 
5 *537:13 *537:15 3.41 
6 *537:15 gpio_inp_dis[17] 3094.67 
*END

*D_NET *538 0.636317
*CONN
*P gpio_inp_dis[18] O
*I *874:gpio_inp_dis[18] O *D counter_gpio_config_example
*CAP
1 gpio_inp_dis[18] 0.00170274
2 *874:gpio_inp_dis[18] 0.00853219
3 *538:13 0.0956852
4 *538:11 0.0939824
5 *538:9 0.179468
6 *538:7 0.188
7 *538:13 *676:9 0
8 *538:13 *720:9 0.0322176
9 gpio_analog_pol[18] gpio_inp_dis[18] 0
10 gpio_holdover[19] *538:13 0
11 *122:15 *538:7 0
12 *179:15 *538:7 0
13 *198:9 *538:9 0.0299184
14 *323:7 *538:7 0.000201044
15 *324:7 *538:7 0.000197245
16 *327:9 *538:9 0.00641129
17 *414:9 *538:9 0
18 *455:11 *538:13 0
19 *459:11 *538:9 0
*RES
1 *874:gpio_inp_dis[18] *538:7 23.0717 
2 *538:7 *538:9 3690.95 
3 *538:9 *538:11 3.41 
4 *538:11 *538:13 262.37 
5 *538:13 gpio_inp_dis[18] 36.2582 
*END

*D_NET *539 0.370051
*CONN
*P gpio_inp_dis[19] O
*I *874:gpio_inp_dis[19] O *D counter_gpio_config_example
*CAP
1 gpio_inp_dis[19] 0.157542
2 *874:gpio_inp_dis[19] 0.000207258
3 *539:11 0.157542
4 *539:9 0.0227994
5 *539:7 0.0230067
6 gpio_analog_pol[19] gpio_inp_dis[19] 0
7 *261:7 *539:7 3.92996e-05
8 *261:9 *539:7 3.3599e-06
9 *261:9 *539:9 0.00746226
10 *308:9 *539:9 0
11 *388:11 *539:7 3.0855e-05
12 *388:11 *539:9 0.00141841
*RES
1 *874:gpio_inp_dis[19] *539:7 0.556167 
2 *539:7 *539:9 68.8346 
3 *539:9 *539:11 3.41 
4 *539:11 gpio_inp_dis[19] 3237.96 
*END

*D_NET *540 0.344005
*CONN
*P gpio_inp_dis[1] O
*I *874:gpio_inp_dis[1] O *D counter_gpio_config_example
*CAP
1 gpio_inp_dis[1] 0.000253877
2 *874:gpio_inp_dis[1] 0.00953813
3 *540:17 0.126618
4 *540:15 0.126364
5 *540:13 0.0295366
6 *540:11 0.0390747
7 *540:11 *738:25 0.00283576
8 gpio_analog_pol[1] *540:17 0
9 *131:9 *540:17 0
10 *187:11 *540:11 0
11 *239:19 *540:11 5.0145e-05
12 *243:11 *540:11 0.000639561
13 *253:11 *540:11 0
14 *253:13 *540:13 0.00601143
15 *292:11 *540:11 0.000189802
16 *298:16 *540:17 0.0028934
17 *375:17 *540:13 0
18 *436:13 *540:13 0
*RES
1 *874:gpio_inp_dis[1] *540:11 30.2454 
2 *540:11 *540:13 73.0223 
3 *540:13 *540:15 3.41 
4 *540:15 *540:17 344.284 
5 *540:17 gpio_inp_dis[1] 0.798217 
*END

*D_NET *541 0.407256
*CONN
*P gpio_inp_dis[20] O
*I *874:gpio_inp_dis[20] O *D counter_gpio_config_example
*CAP
1 gpio_inp_dis[20] 0.00196887
2 *874:gpio_inp_dis[20] 0.00886405
3 *541:13 0.108751
4 *541:11 0.115646
5 *541:13 *567:27 0.0115546
6 *541:13 *717:13 0.148199
7 gpio_analog_pol[20] gpio_inp_dis[20] 0
8 *257:7 *541:11 3.55467e-05
9 *257:9 *541:11 0.00209627
10 *356:7 *541:11 3.14194e-05
11 *356:9 *541:11 0.0021004
12 *361:13 gpio_inp_dis[20] 0.00199484
13 *436:13 *541:13 0.00601499
*RES
1 *874:gpio_inp_dis[20] *541:11 29.2005 
2 *541:11 *541:13 3280.52 
3 *541:13 gpio_inp_dis[20] 31.8058 
*END

*D_NET *542 0.508539
*CONN
*P gpio_inp_dis[21] O
*I *874:gpio_inp_dis[21] O *D counter_gpio_config_example
*CAP
1 gpio_inp_dis[21] 8.83825e-05
2 *874:gpio_inp_dis[21] 0.00125048
3 *542:25 0.152757
4 *542:23 0.152669
5 *542:21 0.00584197
6 *542:19 0.00584197
7 *542:17 0.0052301
8 *542:9 0.0222414
9 *542:7 0.0182618
10 *542:9 *666:17 0
11 *542:17 *747:5 0.000351321
12 *542:17 *769:5 0
13 *542:17 *783:11 1.83122e-05
14 *542:17 *783:13 0.00138666
15 *542:21 *743:17 0.00280511
16 gpio_analog_pol[21] gpio_inp_dis[21] 0
17 *103:27 *542:21 0.000201457
18 *104:27 *542:17 0.00132742
19 *146:29 *542:25 0
20 *190:23 *542:17 0.0198287
21 *190:29 *542:21 0.0218876
22 *206:7 *542:7 0.000241773
23 *215:33 *542:17 0.00016281
24 *233:19 *542:17 0.0194017
25 *233:21 *542:21 0.0306831
26 *247:7 *542:7 0.000241773
27 *322:9 *542:9 0.0403929
28 *323:15 *542:21 0.00109236
29 *381:17 *542:17 0.00033388
30 *465:19 *542:25 0.00400024
*RES
1 *874:gpio_inp_dis[21] *542:7 6.42427 
2 *542:7 *542:9 505.268 
3 *542:9 *542:17 45.6975 
4 *542:17 *542:19 4.5 
5 *542:19 *542:21 290.5 
6 *542:21 *542:23 4.5 
7 *542:23 *542:25 3134.04 
8 *542:25 gpio_inp_dis[21] 1.60714 
*END

*D_NET *543 0.462144
*CONN
*P gpio_inp_dis[22] O
*I *874:gpio_inp_dis[22] O *D counter_gpio_config_example
*CAP
1 gpio_inp_dis[22] 0.157244
2 *874:gpio_inp_dis[22] 0.000217316
3 *543:19 0.157244
4 *543:17 0.0147992
5 *543:15 0.0147992
6 *543:13 0.00924932
7 *543:11 0.00946664
8 gpio_inp_dis[22] *688:5 0
9 gpio_inp_dis[22] *811:5 0
10 gpio_inp_dis[22] *812:5 0.0023311
11 *543:13 *546:13 0
12 *543:13 *815:17 0.00336062
13 *543:17 *750:11 0.000841629
14 gpio_analog_pol[22] gpio_inp_dis[22] 0
15 *92:7 *543:11 3.8305e-05
16 *92:9 *543:11 2.14269e-05
17 *158:11 *543:13 0.000772229
18 *209:7 *543:11 6.08368e-05
19 *209:9 *543:11 1.50918e-05
20 *234:13 *543:13 0.0376022
21 *235:13 *543:13 0.000439471
22 *290:17 *543:17 0.00456563
23 *322:13 *543:17 0.0233353
24 *360:13 *543:17 0
25 *425:13 *543:13 0.0257402
*RES
1 *874:gpio_inp_dis[22] *543:11 4.19333 
2 *543:11 *543:13 487.054 
3 *543:13 *543:15 3.41 
4 *543:15 *543:17 52.3674 
5 *543:17 *543:19 3.41 
6 *543:19 gpio_inp_dis[22] 3124.42 
*END

*D_NET *544 0.494896
*CONN
*P gpio_inp_dis[23] O
*I *874:gpio_inp_dis[23] O *D counter_gpio_config_example
*CAP
1 gpio_inp_dis[23] 0.00220534
2 *874:gpio_inp_dis[23] 0.00254421
3 *544:21 0.152861
4 *544:19 0.150656
5 *544:17 0.015091
6 *544:15 0.015091
7 *544:13 0.00796621
8 *544:11 0.0105104
9 *544:13 *716:23 0
10 *544:17 *743:17 0.00054687
11 *544:17 *781:17 0.044272
12 *544:17 *783:11 0.000263236
13 *544:17 *783:13 3.5759e-05
14 gpio_analog_pol[23] gpio_inp_dis[23] 0
15 *104:27 *544:17 0.00452294
16 *109:13 *544:13 0.00204526
17 *117:13 *544:11 0.000292541
18 *128:15 *544:11 0.00107807
19 *147:23 *544:17 0.00369597
20 *148:21 *544:21 0
21 *227:11 *544:11 0
22 *233:19 *544:17 0.00931052
23 *271:19 *544:17 0.016536
24 *326:13 *544:13 0.00956187
25 *326:21 *544:13 0.000176806
26 *367:25 *544:17 0.0364837
27 *446:11 *544:13 0
28 *533:21 *544:13 0.00914894
*RES
1 *874:gpio_inp_dis[23] *544:11 10.2677 
2 *544:11 *544:13 239.946 
3 *544:13 *544:15 3.41 
4 *544:15 *544:17 98.7783 
5 *544:17 *544:19 3.41 
6 *544:19 *544:21 3096 
7 *544:21 gpio_inp_dis[23] 42.9732 
*END

*D_NET *545 0.547617
*CONN
*P gpio_inp_dis[24] O
*I *874:gpio_inp_dis[24] O *D counter_gpio_config_example
*CAP
1 gpio_inp_dis[24] 0.000263385
2 *874:gpio_inp_dis[24] 0.0154573
3 *545:30 0.0164408
4 *545:28 0.0161774
5 *545:26 0.158343
6 *545:24 0.158343
7 *545:22 0.028849
8 *545:20 0.028849
9 *545:18 0.0198735
10 *545:16 0.0202894
11 *545:12 0.0158732
12 *545:16 *553:16 5.21944e-06
13 *545:18 *553:16 0.000629678
14 *545:18 *705:35 2.77245e-05
15 *545:22 *570:10 0
16 *545:22 *668:9 0
17 *545:22 *818:9 0
18 *545:26 *770:13 0.0374632
19 gpio_dm0[36] *545:12 0.000496648
20 *149:25 *545:30 0
21 *237:9 *545:12 0
22 *237:9 *545:16 0
23 *314:13 *545:30 0.0192066
24 *372:23 *545:18 2.73523e-05
25 *372:25 *545:18 0.0101402
26 *420:12 *545:12 0.00086184
*RES
1 *874:gpio_inp_dis[24] *545:12 49.4669 
2 *545:12 *545:16 1.64813 
3 *545:16 *545:18 68.6294 
4 *545:18 *545:20 3.41 
5 *545:20 *545:22 74.2757 
6 *545:22 *545:24 3.41 
7 *545:24 *545:26 462.402 
8 *545:26 *545:28 3.41 
9 *545:28 *545:30 50.254 
10 *545:30 gpio_inp_dis[24] 0.884383 
*END

*D_NET *546 0.565644
*CONN
*P gpio_inp_dis[25] O
*I *874:gpio_inp_dis[25] O *D counter_gpio_config_example
*CAP
1 gpio_inp_dis[25] 0.000640602
2 *874:gpio_inp_dis[25] 0.000501056
3 *546:21 0.00503809
4 *546:19 0.00439749
5 *546:17 0.0474705
6 *546:15 0.0474705
7 *546:13 0.0839654
8 *546:11 0.0844665
9 *546:13 *549:13 0.00371475
10 *546:13 *727:25 0
11 *546:13 *771:13 0
12 *546:13 *815:17 0
13 gpio_analog_pol[25] gpio_inp_dis[25] 0
14 gpio_holdover[25] *546:21 0
15 gpio_ib_mode_sel[25] *546:21 0
16 *176:11 *546:13 0.000118344
17 *234:11 *546:11 3.72636e-05
18 *235:13 *546:13 0
19 *338:13 *546:13 0
20 *358:9 *546:11 0
21 *368:57 *546:13 0.0601755
22 *370:13 *546:13 0.209666
23 *378:13 *546:13 0.00100119
24 *378:21 *546:13 0.0168361
25 *385:7 *546:11 4.45405e-05
26 *385:9 *546:11 9.97228e-05
27 *425:13 *546:13 0
28 *427:13 *546:13 0
29 *543:13 *546:13 0
*RES
1 *874:gpio_inp_dis[25] *546:11 4.914 
2 *546:11 *546:13 2672.16 
3 *546:13 *546:15 3.41 
4 *546:15 *546:17 125.515 
5 *546:17 *546:19 3.41 
6 *546:19 *546:21 86.3393 
7 *546:21 gpio_inp_dis[25] 4.98685 
*END

*D_NET *547 0.590278
*CONN
*P gpio_inp_dis[26] O
*I *874:gpio_inp_dis[26] O *D counter_gpio_config_example
*CAP
1 gpio_inp_dis[26] 0.00392546
2 *874:gpio_inp_dis[26] 0.00885129
3 *547:9 0.0419991
4 *547:7 0.0469249
5 *547:9 *548:9 0.196155
6 *547:9 *550:9 0.0347123
7 *547:9 *731:21 0.01144
8 *547:9 *765:21 0.0120021
9 *547:9 *768:13 0.00111464
10 gpio_analog_pol[26] gpio_inp_dis[26] 0.000349596
11 *101:7 *547:7 0
12 *150:7 *547:7 0
13 *274:7 *547:7 0.000666331
14 *457:11 *547:9 0.232137
*RES
1 *874:gpio_inp_dis[26] *547:7 26.7471 
2 *547:7 *547:9 2858.55 
3 *547:9 gpio_inp_dis[26] 25.8092 
*END

*D_NET *548 0.436465
*CONN
*P gpio_inp_dis[27] O
*I *874:gpio_inp_dis[27] O *D counter_gpio_config_example
*CAP
1 gpio_inp_dis[27] 0.00396044
2 *874:gpio_inp_dis[27] 0.0100282
3 *548:9 0.0595338
4 *548:7 0.0656016
5 *548:9 *550:9 0.0146117
6 *548:9 *731:21 0.0704109
7 *548:9 *768:13 0.00502526
8 *548:9 *818:13 0.0107781
9 gpio_analog_pol[27] gpio_inp_dis[27] 9.16233e-05
10 *143:7 *548:7 5.29272e-05
11 *179:15 *548:7 0
12 *300:7 *548:7 0.000215292
13 *467:13 *548:9 0
14 *547:9 *548:9 0.196155
*RES
1 *874:gpio_inp_dis[27] *548:7 26.675 
2 *548:7 *548:9 2415.95 
3 *548:9 gpio_inp_dis[27] 22.0834 
*END

*D_NET *549 0.482019
*CONN
*P gpio_inp_dis[28] O
*I *874:gpio_inp_dis[28] O *D counter_gpio_config_example
*CAP
1 gpio_inp_dis[28] 0.00259769
2 *874:gpio_inp_dis[28] 0.000421406
3 *549:17 0.0509977
4 *549:15 0.0484
5 *549:13 0.0524715
6 *549:11 0.0528929
7 *549:13 *771:13 0
8 *549:17 gpio_oeb[28] 0
9 gpio_analog_pol[28] gpio_inp_dis[28] 0
10 *130:11 *549:11 0.000133733
11 *222:7 *549:11 4.72078e-05
12 *222:9 *549:11 0.000136494
13 *334:13 *549:13 0.000111243
14 *343:13 *549:13 0
15 *368:13 *549:13 0.000106304
16 *368:57 *549:13 0.012378
17 *370:13 *549:13 0.166608
18 *378:21 *549:13 0.00619943
19 *422:13 *549:13 0.0848026
20 *463:11 *549:13 0
21 *546:13 *549:13 0.00371475
*RES
1 *874:gpio_inp_dis[28] *549:11 5.05813 
2 *549:11 *549:13 2214.98 
3 *549:13 *549:15 3.41 
4 *549:15 *549:17 125.659 
5 *549:17 gpio_inp_dis[28] 46.171 
*END

*D_NET *550 0.386912
*CONN
*P gpio_inp_dis[29] O
*I *874:gpio_inp_dis[29] O *D counter_gpio_config_example
*CAP
1 gpio_inp_dis[29] 0.00391304
2 *874:gpio_inp_dis[29] 0.00953667
3 *550:9 0.124098
4 *550:7 0.129722
5 gpio_dm1[36] *550:9 0.000137544
6 *116:7 *550:7 0
7 *122:15 *550:7 0
8 *198:7 *550:7 0.00185097
9 *259:15 *550:7 2.1479e-05
10 *416:25 *550:9 0
11 *417:17 *550:9 0
12 *424:9 *550:9 0.00174023
13 *424:35 *550:9 0.000383052
14 *424:37 *550:9 0.00303483
15 *457:11 *550:9 0.0631504
16 *547:9 *550:9 0.0347123
17 *548:9 *550:9 0.0146117
*RES
1 *874:gpio_inp_dis[29] *550:7 26.9272 
2 *550:7 *550:9 350.009 
3 *550:9 gpio_inp_dis[29] 12.1982 
*END

*D_NET *551 0.30457
*CONN
*P gpio_inp_dis[2] O
*I *874:gpio_inp_dis[2] O *D counter_gpio_config_example
*CAP
1 gpio_inp_dis[2] 0.0102309
2 *874:gpio_inp_dis[2] 0.000175756
3 *551:9 0.12345
4 *551:7 0.113395
5 gpio_analog_en[2] gpio_inp_dis[2] 0
6 gpio_analog_pol[1] gpio_inp_dis[2] 0.00130867
7 gpio_analog_pol[2] gpio_inp_dis[2] 0.00111214
8 *165:9 *551:9 0
9 *170:17 *551:9 0
10 *188:13 gpio_inp_dis[2] 0
11 *214:17 *551:9 0.0543732
12 *221:11 *551:7 0
13 *221:11 *551:9 0
14 *243:17 gpio_inp_dis[2] 0.000396695
15 *368:13 *551:7 5.44297e-05
16 *368:13 *551:9 7.31194e-05
*RES
1 *874:gpio_inp_dis[2] *551:7 0.39893 
2 *551:7 *551:9 363.407 
3 *551:9 gpio_inp_dis[2] 34.767 
*END

*D_NET *552 0.235452
*CONN
*P gpio_inp_dis[30] O
*I *874:gpio_inp_dis[30] O *D counter_gpio_config_example
*CAP
1 gpio_inp_dis[30] 0.00271438
2 *874:gpio_inp_dis[30] 0.0116055
3 *552:9 0.0710042
4 *552:7 0.0798953
5 *552:9 *730:21 0.0694053
6 gpio_analog_pol[30] gpio_inp_dis[30] 0.000477419
7 *127:7 *552:7 0.000320821
8 *301:7 *552:7 2.91124e-05
9 *416:7 *552:7 0
*RES
1 *874:gpio_inp_dis[30] *552:7 28.9811 
2 *552:7 *552:9 1649.12 
3 *552:9 gpio_inp_dis[30] 9.75578 
*END

*D_NET *553 0.290382
*CONN
*P gpio_inp_dis[31] O
*I *874:gpio_inp_dis[31] O *D counter_gpio_config_example
*CAP
1 gpio_inp_dis[31] 0.00035772
2 *874:gpio_inp_dis[31] 0.00278263
3 *553:22 0.0455158
4 *553:20 0.0451581
5 *553:18 0.0324838
6 *553:16 0.0352664
7 *553:18 *699:9 0.00324193
8 *553:18 *751:11 0.000324528
9 *553:22 *726:21 0
10 gpio_analog_pol[31] gpio_inp_dis[31] 0.000255053
11 *110:6 *553:16 0.000304711
12 *142:13 *553:18 0.0570857
13 *205:17 *553:16 0.0003437
14 *237:9 *553:16 0.000141828
15 *290:17 *553:18 0
16 *290:21 *553:22 0.0405112
17 *323:15 *553:18 0
18 *410:19 *553:16 0.001051
19 *411:15 *553:18 0.0249235
20 *545:16 *553:16 5.21944e-06
21 *545:18 *553:16 0.000629678
*RES
1 *874:gpio_inp_dis[31] *553:16 42.6535 
2 *553:16 *553:18 122.488 
3 *553:18 *553:20 3.41 
4 *553:20 *553:22 1068.7 
5 *553:22 gpio_inp_dis[31] 4.35705 
*END

*D_NET *554 0.191993
*CONN
*P gpio_inp_dis[32] O
*I *874:gpio_inp_dis[32] O *D counter_gpio_config_example
*CAP
1 gpio_inp_dis[32] 0.00699635
2 *874:gpio_inp_dis[32] 0.00861913
3 *554:9 0.0838854
4 *554:7 0.0855082
5 gpio_analog_pol[32] gpio_inp_dis[32] 0
6 gpio_dm0[32] gpio_inp_dis[32] 0
7 *158:15 gpio_inp_dis[32] 0.00442941
8 *198:7 *554:7 0
9 *246:53 gpio_inp_dis[32] 0
10 *264:7 *554:7 0.000109087
11 *285:7 *554:7 0.00177675
12 *332:15 gpio_inp_dis[32] 0.000114731
13 *332:17 gpio_inp_dis[32] 6.72288e-05
14 *339:33 *554:7 0.000487057
*RES
1 *874:gpio_inp_dis[32] *554:7 25.0535 
2 *554:7 *554:9 177.563 
3 *554:9 gpio_inp_dis[32] 21.1721 
*END

*D_NET *555 0.242938
*CONN
*P gpio_inp_dis[33] O
*I *874:gpio_inp_dis[33] O *D counter_gpio_config_example
*CAP
1 gpio_inp_dis[33] 9.54158e-05
2 *874:gpio_inp_dis[33] 0.00355819
3 *555:17 0.0502296
4 *555:15 0.0501342
5 *555:13 0.0623508
6 *555:11 0.065909
7 *555:17 *752:9 0.00759167
8 gpio_analog_en[33] *555:17 0
9 gpio_analog_pol[33] *555:17 0.00163513
10 *144:10 *555:11 0.000244221
11 *186:11 *555:11 0.0010431
12 *275:9 *555:11 0
13 *378:11 *555:11 0.00014705
*RES
1 *874:gpio_inp_dis[33] *555:11 13.6701 
2 *555:11 *555:13 142.589 
3 *555:13 *555:15 3.41 
4 *555:15 *555:17 135.293 
5 *555:17 gpio_inp_dis[33] 0.320383 
*END

*D_NET *556 0.194261
*CONN
*P gpio_inp_dis[34] O
*I *874:gpio_inp_dis[34] O *D counter_gpio_config_example
*CAP
1 gpio_inp_dis[34] 0.000335391
2 *874:gpio_inp_dis[34] 0.000663865
3 *556:22 2.25175e-06
4 *556:17 0.0502696
5 *556:15 0.0499365
6 *556:13 0.0281555
7 *556:11 0.0288194
8 *556:13 *557:13 0.000113898
9 *556:17 *811:11 0.00230813
10 gpio_analog_pol[34] *556:22 1.70711e-05
11 gpio_analog_sel[34] *556:17 0
12 *139:13 *556:17 0
13 *283:15 *556:17 0
14 *290:13 *556:13 0.0011866
15 *293:13 *556:13 0.000158398
16 *318:7 *556:11 4.87987e-05
17 *318:9 *556:11 0.000114756
18 *334:13 *556:13 0.0202365
19 *335:13 *556:13 0.000333729
20 *368:39 *556:13 0.00621242
21 *372:11 *556:11 0.000167646
22 *378:13 *556:13 0.00394795
23 *378:19 *556:13 0.000340813
24 *381:13 *556:13 0.000891208
*RES
1 *874:gpio_inp_dis[34] *556:11 5.31037 
2 *556:11 *556:13 76.5379 
3 *556:13 *556:15 3.41 
4 *556:15 *556:17 126.933 
5 *556:17 gpio_inp_dis[34] 1.1186 
6 gpio_inp_dis[34] *556:22 0.0687805 
*END

*D_NET *557 0.243776
*CONN
*P gpio_inp_dis[35] O
*I *874:gpio_inp_dis[35] O *D counter_gpio_config_example
*CAP
1 gpio_inp_dis[35] 0.000321478
2 *874:gpio_inp_dis[35] 0.000723236
3 *557:21 0.00152864
4 *557:19 0.00120716
5 *557:17 0.0272784
6 *557:15 0.0272784
7 *557:13 0.0177754
8 *557:11 0.0184986
9 *557:17 *829:16 0.00146125
10 *557:21 *726:21 0.00267083
11 gpio_analog_pol[35] gpio_inp_dis[35] 0.000194323
12 *874:gpio_in[0] *557:11 0.000212575
13 *113:13 *557:13 0
14 *117:17 *557:17 6.59103e-06
15 *127:19 *557:17 9.23367e-05
16 *127:21 *557:17 0.0121164
17 *146:13 *557:13 0
18 *215:33 *557:17 0.00151417
19 *240:19 *557:17 0.00011489
20 *290:13 *557:13 0.00108557
21 *292:13 *557:13 0
22 *293:13 *557:13 0.0173591
23 *293:17 *557:17 8.81562e-05
24 *294:13 *557:13 0
25 *337:13 *557:13 0
26 *337:17 *557:17 0.0782315
27 *337:21 *557:21 0.00501255
28 *347:19 *557:17 4.88232e-05
29 *347:21 *557:17 0.000108827
30 *381:13 *557:13 0.00236842
31 *394:7 *557:11 4.28713e-05
32 *394:9 *557:11 9.89363e-05
33 *425:17 *557:17 0.0260444
34 *463:7 *557:11 0.00016195
35 *463:11 *557:13 1.65923e-05
36 *556:13 *557:13 0.000113898
*RES
1 *874:gpio_inp_dis[35] *557:11 5.63467 
2 *557:11 *557:13 450.018 
3 *557:13 *557:15 3.41 
4 *557:15 *557:17 126.668 
5 *557:17 *557:19 3.41 
6 *557:19 *557:21 62.6607 
7 *557:21 gpio_inp_dis[35] 4.33668 
*END

*D_NET *558 0.155276
*CONN
*P gpio_inp_dis[36] O
*I *874:gpio_inp_dis[36] O *D counter_gpio_config_example
*CAP
1 gpio_inp_dis[36] 0.00105413
2 *874:gpio_inp_dis[36] 0.0586102
3 *558:20 0.0132197
4 *558:18 0.0707757
5 gpio_analog_pol[36] gpio_inp_dis[36] 0.000263856
6 *120:10 *558:18 0.000378626
7 *144:10 *558:18 0.00818976
8 *207:9 *558:20 0
9 *252:40 *558:18 0.000378626
10 *462:15 *558:20 0
11 *534:16 *558:18 0.00240537
*RES
1 *874:gpio_inp_dis[36] *558:18 31.7281 
2 *558:18 *558:20 239.339 
3 *558:20 gpio_inp_dis[36] 5.95818 
*END

*D_NET *559 0.0344227
*CONN
*P gpio_inp_dis[37] O
*I *874:gpio_inp_dis[37] O *D counter_gpio_config_example
*CAP
1 gpio_inp_dis[37] 0.0125372
2 *874:gpio_inp_dis[37] 0.0125372
3 gpio_analog_en[37] gpio_inp_dis[37] 0.00604707
4 gpio_analog_pol[37] gpio_inp_dis[37] 0.00166656
5 *154:7 gpio_inp_dis[37] 0
6 *396:15 gpio_inp_dis[37] 0.000995808
7 *462:15 gpio_inp_dis[37] 0.000444854
8 *535:7 gpio_inp_dis[37] 0.00019407
*RES
1 *874:gpio_inp_dis[37] gpio_inp_dis[37] 44.0583 
*END

*D_NET *560 0.108915
*CONN
*P gpio_inp_dis[38] O
*I *874:gpio_inp_dis[38] O *D counter_gpio_config_example
*CAP
1 gpio_inp_dis[38] 2.16332e-05
2 *874:gpio_inp_dis[38] 0.000208285
3 *560:19 0.00424058
4 *560:17 0.00421894
5 *560:15 0.032028
6 *560:13 0.032028
7 *560:11 0.00481983
8 *560:9 0.00502811
9 *560:11 *563:11 0.00817229
10 *560:11 *564:8 0.000222311
11 *560:11 *566:8 0.00143976
12 gpio_analog_pol[38] *560:19 0
13 gpio_dm0[38] *560:19 0
14 *252:50 *560:19 0.00671967
15 *301:9 *560:11 0
16 *340:9 *560:11 0
17 *342:19 *560:11 0.000761507
18 *384:13 *560:15 0
19 *428:11 *560:11 0.00892379
20 *432:13 *560:11 8.23027e-05
21 *475:11 *560:15 0
*RES
1 *874:gpio_inp_dis[38] *560:9 3.94267 
2 *560:9 *560:11 173.161 
3 *560:11 *560:13 3.41 
4 *560:13 *560:15 87.3918 
5 *560:15 *560:17 3.41 
6 *560:17 *560:19 113.839 
7 *560:19 gpio_inp_dis[38] 0.455357 
*END

*D_NET *561 0.139972
*CONN
*P gpio_inp_dis[39] O
*I *874:gpio_inp_dis[39] O *D counter_gpio_config_example
*CAP
1 gpio_inp_dis[39] 8.86538e-05
2 *874:gpio_inp_dis[39] 0.00254581
3 *561:25 0.00394412
4 *561:23 0.00400596
5 *561:21 0.0155454
6 *561:19 0.0153949
7 *561:17 0.0262374
8 *561:15 0.0262374
9 *561:13 0.0106945
10 *561:11 0.0132404
11 *561:13 *716:23 0.0147046
12 gpio_analog_pol[39] *561:25 0
13 *255:7 *561:11 4.19118e-05
14 *255:9 *561:11 0.000463405
15 *357:17 *561:11 0
16 *479:11 *561:13 0.00649391
17 *533:13 *561:13 0.000333729
*RES
1 *874:gpio_inp_dis[39] *561:11 9.8866 
2 *561:11 *561:13 326.768 
3 *561:13 *561:15 3.41 
4 *561:15 *561:17 71.8254 
5 *561:17 *561:19 3.41 
6 *561:19 *561:21 298.679 
7 *561:21 *561:23 3 
8 *561:23 *561:25 73.9286 
9 *561:25 gpio_inp_dis[39] 1.86607 
*END

*D_NET *562 0.500375
*CONN
*P gpio_inp_dis[3] O
*I *874:gpio_inp_dis[3] O *D counter_gpio_config_example
*CAP
1 gpio_inp_dis[3] 0.000103348
2 *874:gpio_inp_dis[3] 0.000258446
3 *562:17 0.0951022
4 *562:15 0.0949988
5 *562:13 0.00805094
6 *562:11 0.00805094
7 *562:9 0.0154241
8 *562:7 0.0156825
9 *562:7 *732:5 0
10 *562:9 *661:15 0.000995751
11 *562:9 *735:9 0.00120741
12 *562:9 *749:19 0.00320551
13 *562:9 *787:9 0.000104613
14 *562:9 *804:9 0.0344783
15 *562:13 *672:13 0.00860049
16 *94:11 *562:17 0.00133678
17 *127:21 *562:9 0
18 *146:13 *562:13 0
19 *166:17 *562:17 0
20 *226:9 *562:17 0.208679
21 *259:29 *562:9 0.00409562
22 *380:13 *562:13 0
*RES
1 *874:gpio_inp_dis[3] *562:7 8.66071 
2 *562:7 *562:9 430.143 
3 *562:9 *562:11 4.5 
4 *562:11 *562:13 207.616 
5 *562:13 *562:15 3.41 
6 *562:15 *562:17 368.03 
7 *562:17 gpio_inp_dis[3] 0.347017 
*END

*D_NET *563 0.234395
*CONN
*P gpio_inp_dis[40] O
*I *874:gpio_inp_dis[40] O *D counter_gpio_config_example
*CAP
1 gpio_inp_dis[40] 0.000101379
2 *874:gpio_inp_dis[40] 0.00019184
3 *563:19 0.00364817
4 *563:17 0.00354679
5 *563:15 0.0636446
6 *563:13 0.0636446
7 *563:11 0.00324465
8 *563:9 0.00343649
9 *563:11 *564:8 0.000121549
10 *563:11 *566:8 0.00239815
11 gpio_analog_pol[40] *563:19 6.9763e-05
12 *126:17 *563:15 0.075573
13 *167:13 *563:19 0
14 *340:9 *563:11 0
15 *340:13 *563:11 0
16 *432:13 *563:11 0.000943493
17 *432:15 *563:11 0.00565833
18 *432:19 *563:15 0
19 *560:11 *563:11 0.00817229
*RES
1 *874:gpio_inp_dis[40] *563:9 3.7296 
2 *563:9 *563:11 144.018 
3 *563:11 *563:13 3.41 
4 *563:13 *563:15 215.022 
5 *563:15 *563:17 3.41 
6 *563:17 *563:19 71.3393 
7 *563:19 gpio_inp_dis[40] 2.13393 
*END

*D_NET *564 0.326206
*CONN
*P gpio_inp_dis[41] O
*I *874:gpio_inp_dis[41] O *D counter_gpio_config_example
*CAP
1 gpio_inp_dis[41] 5.55677e-05
2 *874:gpio_inp_dis[41] 0.00152987
3 *564:14 0.0096591
4 *564:12 0.00960353
5 *564:10 0.0472602
6 *564:8 0.0487901
7 *564:8 *566:8 0.00224622
8 *564:10 *701:9 0.00102848
9 *564:10 *702:9 0.0535231
10 *564:10 *713:9 0.0344162
11 *564:10 *714:19 0.0180484
12 *564:10 *718:9 0.0367694
13 *564:10 *794:9 0.00125819
14 *564:10 *832:9 0.0607335
15 gpio_analog_pol[41] *564:14 0
16 *257:13 *564:14 0
17 *342:19 *564:8 0.000535631
18 *389:13 *564:10 0
19 *428:11 *564:8 0.000293242
20 *432:13 *564:8 0.000111243
21 *529:13 *564:10 0
22 *560:11 *564:8 0.000222311
23 *563:11 *564:8 0.000121549
*RES
1 *874:gpio_inp_dis[41] *564:8 11.8741 
2 *564:8 *564:10 258.154 
3 *564:10 *564:12 3.41 
4 *564:12 *564:14 193.982 
5 *564:14 gpio_inp_dis[41] 1.16964 
*END

*D_NET *565 0.431211
*CONN
*P gpio_inp_dis[42] O
*I *874:gpio_inp_dis[42] O *D counter_gpio_config_example
*CAP
1 gpio_inp_dis[42] 0.000804937
2 *874:gpio_inp_dis[42] 0.00403439
3 *565:13 0.0911676
4 *565:11 0.0903627
5 *565:9 0.025734
6 *565:7 0.0297683
7 gpio_ib_mode_sel[39] *565:13 0.000369715
8 *101:9 *565:9 0.039548
9 *169:25 gpio_inp_dis[42] 0
10 *197:7 *565:7 0.000503493
11 *259:17 *565:9 0.00871156
12 *412:7 *565:7 0.000252581
13 *431:13 *565:13 0.139953
14 *478:9 *565:13 0
*RES
1 *874:gpio_inp_dis[42] *565:7 12.3337 
2 *565:7 *565:9 760.268 
3 *565:9 *565:11 3.41 
4 *565:11 *565:13 310.078 
5 *565:13 gpio_inp_dis[42] 19.7225 
*END

*D_NET *566 0.35007
*CONN
*P gpio_inp_dis[43] O
*I *874:gpio_inp_dis[43] O *D counter_gpio_config_example
*CAP
1 gpio_inp_dis[43] 0.000100531
2 *874:gpio_inp_dis[43] 0.0106033
3 *566:14 0.00259408
4 *566:12 0.00249355
5 *566:10 0.111199
6 *566:8 0.121802
7 *566:8 *567:13 0.000322558
8 *566:10 *785:9 0
9 *124:17 *566:10 0.0926678
10 *170:21 *566:14 0
11 *342:19 *566:8 3.3981e-05
12 *428:11 *566:8 0.000200642
13 *432:13 *566:8 0.000322558
14 *432:15 *566:8 0.00164659
15 *433:10 *566:8 0
16 *476:11 *566:10 0
17 *560:11 *566:8 0.00143976
18 *563:11 *566:8 0.00239815
19 *564:8 *566:8 0.00224622
*RES
1 *874:gpio_inp_dis[43] *566:8 37.3355 
2 *566:8 *566:10 343.697 
3 *566:10 *566:12 3.41 
4 *566:12 *566:14 51.9107 
5 *566:14 gpio_inp_dis[43] 2.11607 
*END

*D_NET *567 0.49146
*CONN
*P gpio_inp_dis[4] O
*I *874:gpio_inp_dis[4] O *D counter_gpio_config_example
*CAP
1 gpio_inp_dis[4] 7.13387e-05
2 *874:gpio_inp_dis[4] 0.000486536
3 *567:31 0.132798
4 *567:29 0.132727
5 *567:27 0.0315681
6 *567:25 0.0315681
7 *567:23 0.00392342
8 *567:21 0.00450465
9 *567:15 0.0153484
10 *567:13 0.0152537
11 *567:13 *662:19 0
12 *567:13 *690:13 4.37712e-06
13 *567:15 *662:19 0.000872982
14 *567:15 *662:25 0.000125588
15 *567:15 *670:9 0.00907962
16 *567:15 *683:11 0.000536813
17 *567:15 *690:11 0.000583617
18 *567:15 *690:13 0.0104024
19 *567:15 *727:21 0.000939741
20 *567:15 *730:9 0.011488
21 *567:15 *782:17 0.0207973
22 *567:15 *815:15 0.00324461
23 *567:21 *683:11 0.000120342
24 *567:21 *727:21 0.00122804
25 *567:21 *815:15 0.000256092
26 *567:23 *683:11 0.000313242
27 *567:27 *717:13 0.0227305
28 gpio_analog_pol[4] *567:31 0
29 *176:13 *567:31 0
30 *265:9 *567:31 0
31 *321:13 *567:27 0
32 *432:13 *567:13 0.000276239
33 *436:13 *567:27 0.00450194
34 *450:17 *567:15 0.00166262
35 *450:17 *567:21 0.001496
36 *450:17 *567:23 0.0133816
37 *469:23 *567:15 0.00585055
38 *479:15 *567:21 0.000844694
39 *479:15 *567:23 0.000596149
40 *541:13 *567:27 0.0115546
41 *566:8 *567:13 0.000322558
*RES
1 *874:gpio_inp_dis[4] *567:13 12.0587 
2 *567:13 *567:15 525.429 
3 *567:15 *567:21 27.4732 
4 *567:21 *567:23 126.83 
5 *567:23 *567:25 4.5 
6 *567:25 *567:27 889.438 
7 *567:27 *567:29 3.41 
8 *567:29 *567:31 345.257 
9 *567:31 gpio_inp_dis[4] 0.220117 
*END

*D_NET *568 0.352245
*CONN
*P gpio_inp_dis[5] O
*I *874:gpio_inp_dis[5] O *D counter_gpio_config_example
*CAP
1 gpio_inp_dis[5] 0.00441206
2 *874:gpio_inp_dis[5] 0.00809021
3 *568:9 0.153332
4 *568:7 0.14892
5 *568:5 0.00809021
6 gpio_inp_dis[5] *701:13 0.00285345
7 *568:5 *689:7 0
8 *568:5 *735:7 0
9 *568:5 *806:13 0.00328798
10 *103:27 *568:5 0
11 *172:17 gpio_inp_dis[5] 0.000833007
12 *468:15 *568:9 0.0224262
13 *480:9 *568:9 0
*RES
1 *874:gpio_inp_dis[5] *568:5 157.312 
2 *568:5 *568:7 3.41 
3 *568:7 *568:9 412.917 
4 *568:9 gpio_inp_dis[5] 49.8978 
*END

*D_NET *569 0.745263
*CONN
*P gpio_inp_dis[6] O
*I *874:gpio_inp_dis[6] O *D counter_gpio_config_example
*CAP
1 gpio_inp_dis[6] 0.00258449
2 *874:gpio_inp_dis[6] 0.0144646
3 *569:25 0.124355
4 *569:23 0.121771
5 *569:21 0.0234144
6 *569:19 0.0234144
7 *569:17 0.0144646
8 *102:7 *569:17 0
9 *133:9 *569:17 0.00790686
10 *173:13 gpio_inp_dis[6] 0.00192509
11 *173:13 *569:25 0.286361
12 *340:7 *569:17 4.10321e-05
13 *347:7 *569:17 5.69428e-05
14 *392:11 *569:17 0.000286205
15 *393:7 *569:17 0
16 *406:9 *569:21 0.00129992
17 *407:9 *569:21 0.000316523
18 *411:9 *569:21 0.0520811
19 *412:9 *569:21 0.0576762
20 *438:9 *569:21 0.0128431
21 *536:9 *569:21 0
*RES
1 *874:gpio_inp_dis[6] *569:17 49.1482 
2 *569:17 *569:19 3.41 
3 *569:19 *569:21 1024.38 
4 *569:21 *569:23 3.41 
5 *569:23 *569:25 461.958 
6 *569:25 gpio_inp_dis[6] 6.94112 
*END

*D_NET *570 0.584119
*CONN
*P gpio_inp_dis[7] O
*I *874:gpio_inp_dis[7] O *D counter_gpio_config_example
*CAP
1 gpio_inp_dis[7] 0.00457826
2 *874:gpio_inp_dis[7] 0
3 *570:14 0.0368777
4 *570:12 0.0322994
5 *570:10 0.167986
6 *570:8 0.167986
7 *570:6 0.0316306
8 *570:4 0.0316306
9 *570:6 *664:18 0.00649817
10 *570:6 *665:22 0.00368854
11 *570:10 gpio_slow_sel[6] 0
12 gpio_analog_pol[7] gpio_inp_dis[7] 0.000395582
13 gpio_dm0[7] gpio_inp_dis[7] 0.00398135
14 *92:13 *570:14 0.0668239
15 *132:9 *570:6 0.0283625
16 *261:13 *570:14 0.00137991
17 *545:22 *570:10 0
*RES
1 *874:gpio_inp_dis[7] *570:4 3.41 
2 *570:4 *570:6 117.553 
3 *570:6 *570:8 3.41 
4 *570:8 *570:10 452.337 
5 *570:10 *570:12 3.41 
6 *570:12 *570:14 142.589 
7 *570:14 gpio_inp_dis[7] 16.6209 
*END

*D_NET *571 0.612604
*CONN
*P gpio_inp_dis[8] O
*I *874:gpio_inp_dis[8] O *D counter_gpio_config_example
*CAP
1 gpio_inp_dis[8] 0.00160551
2 *874:gpio_inp_dis[8] 0.00334906
3 *571:26 0.17384
4 *571:24 0.172234
5 *571:22 0.073923
6 *571:20 0.0777229
7 *571:16 0.0169408
8 *571:12 0.0164901
9 gpio_analog_en[8] *571:26 0
10 gpio_analog_pol[8] gpio_inp_dis[8] 0.000391042
11 gpio_analog_pol[8] *571:26 0.0183937
12 gpio_dm0[8] *571:26 3.96265e-05
13 *263:17 *571:26 0
14 *295:20 *571:12 0.000793957
15 *433:10 *571:12 0
16 *532:17 *571:12 0.000130143
17 *534:16 *571:16 0.00681903
18 *534:28 *571:16 2.08257e-05
19 *534:28 *571:20 0.00532713
20 *534:28 *571:22 2.32437e-05
21 *534:30 *571:22 0.0445601
*RES
1 *874:gpio_inp_dis[8] *571:12 5.50742 
2 *571:12 *571:16 46.3451 
3 *571:16 *571:20 15.3721 
4 *571:20 *571:22 272.468 
5 *571:22 *571:24 3.41 
6 *571:24 *571:26 455.689 
7 *571:26 gpio_inp_dis[8] 13.4861 
*END

*D_NET *572 0.447886
*CONN
*P gpio_inp_dis[9] O
*I *874:gpio_inp_dis[9] O *D counter_gpio_config_example
*CAP
1 gpio_inp_dis[9] 0.00286299
2 *874:gpio_inp_dis[9] 0.0778462
3 *572:9 0.145827
4 *572:7 0.142964
5 *572:5 0.0778462
6 *572:5 *808:5 0
7 gpio_analog_pol[9] gpio_inp_dis[9] 0.000533945
8 gpio_analog_pol[9] *572:9 5.64774e-06
9 *132:13 *572:9 0
10 *176:21 *572:9 0
*RES
1 *874:gpio_inp_dis[9] *572:5 1590.17 
2 *572:5 *572:7 3.41 
3 *572:7 *572:9 388.162 
4 *572:9 gpio_inp_dis[9] 6.85338 
*END

*D_NET *661 0.552514
*CONN
*P gpio_oeb[0] O
*I *874:gpio_oeb[0] O *D counter_gpio_config_example
*CAP
1 gpio_oeb[0] 3.33605e-05
2 *874:gpio_oeb[0] 0.00380529
3 *661:29 0.100066
4 *661:27 0.100032
5 *661:25 0.0245935
6 *661:23 0.0246203
7 *661:21 0.00210898
8 *661:19 0.00208211
9 *661:17 0.00337242
10 *661:15 0.00717771
11 *661:15 *703:177 0.000110987
12 *661:15 *712:5 0
13 *661:15 *749:19 0.000150235
14 *661:15 *779:16 0.000278311
15 *661:15 *787:9 0.00860394
16 *661:15 *795:5 0
17 *661:15 *804:9 0.000923429
18 *661:17 *672:11 0.000728085
19 *661:17 *716:19 0.0192239
20 *661:21 *705:41 0.000912434
21 *661:25 *705:41 0.0575392
22 *661:29 *793:19 0
23 gpio_ib_mode_sel[0] *661:29 0.00192245
24 *103:13 *661:25 0
25 *106:13 *661:21 0
26 *106:13 *661:25 0
27 *205:17 *661:17 0.00203904
28 *238:17 *661:17 0.00613035
29 *259:29 *661:17 0.00482258
30 *278:21 *661:21 0.00282282
31 *397:17 *661:29 0.174574
32 *425:17 *661:15 0.00284582
33 *562:9 *661:15 0.000995751
*RES
1 *874:gpio_oeb[0] *661:15 30.4002 
2 *661:15 *661:17 182.893 
3 *661:17 *661:19 4.5 
4 *661:19 *661:21 57.3482 
5 *661:21 *661:23 0.535714 
6 *661:23 *661:25 721.107 
7 *661:25 *661:27 3.41 
8 *661:27 *661:29 366.877 
9 *661:29 gpio_oeb[0] 0.112017 
*END

*D_NET *662 0.839794
*CONN
*P gpio_oeb[10] O
*I *874:gpio_oeb[10] O *D counter_gpio_config_example
*CAP
1 gpio_oeb[10] 0.00125166
2 *874:gpio_oeb[10] 0.00189001
3 *662:31 0.120571
4 *662:29 0.119319
5 *662:27 0.164591
6 *662:25 0.164695
7 *662:19 0.00199329
8 *662:19 *690:13 0.000324656
9 *662:19 *820:9 0.00069735
10 *662:25 *690:13 0.000641629
11 *662:25 *777:9 0.000644933
12 *662:27 *732:15 0.000280954
13 *662:27 *816:13 0.0122944
14 *662:31 gpio_vtrip_sel[10] 0
15 *662:31 *680:17 0.0269673
16 *122:131 *662:27 0
17 *342:21 *662:19 0
18 *398:17 gpio_oeb[10] 0.00194297
19 *398:17 *662:31 0.22069
20 *432:13 *662:19 0
21 *534:16 *662:27 0
22 *534:28 *662:27 0
23 *534:30 *662:27 0
24 *567:13 *662:19 0
25 *567:15 *662:19 0.000872982
26 *567:15 *662:25 0.000125588
*RES
1 *874:gpio_oeb[10] *662:19 48.1971 
2 *662:19 *662:25 7.8399 
3 *662:25 *662:27 477.21 
4 *662:27 *662:29 3.41 
5 *662:29 *662:31 454.103 
6 *662:31 gpio_oeb[10] 11.6678 
*END

*D_NET *663 0.761766
*CONN
*P gpio_oeb[11] O
*I *874:gpio_oeb[11] O *D counter_gpio_config_example
*CAP
1 gpio_oeb[11] 1.75173e-05
2 *874:gpio_oeb[11] 0.000826883
3 *663:13 0.177028
4 *663:11 0.177011
5 *663:9 0.0903548
6 *663:7 0.0911817
7 *663:13 *723:9 0
8 *663:13 *795:9 0
9 *663:13 *811:17 0.0138017
10 gpio_ib_mode_sel[11] *663:13 0
11 *229:9 *663:9 0
12 *233:9 *663:9 0
13 *271:9 *663:9 0
14 *300:9 *663:9 0.00872174
15 *311:9 *663:9 0.201054
16 *359:9 *663:9 0.00132216
17 *360:9 *663:9 0
18 *399:19 *663:13 0
19 *414:7 *663:7 0.000222144
20 *415:17 *663:13 0
21 *438:7 *663:7 0.000223769
*RES
1 *874:gpio_oeb[11] *663:7 5.77567 
2 *663:7 *663:9 2692.2 
3 *663:9 *663:11 3.41 
4 *663:11 *663:13 466.978 
5 *663:13 gpio_oeb[11] 0.05405 
*END

*D_NET *664 0.688429
*CONN
*P gpio_oeb[12] O
*I *874:gpio_oeb[12] O *D counter_gpio_config_example
*CAP
1 gpio_oeb[12] 0.00271831
2 *874:gpio_oeb[12] 0.00503324
3 *664:32 0.0138747
4 *664:26 0.0996483
5 *664:24 0.088492
6 *664:22 0.153346
7 *664:20 0.153346
8 *664:18 0.0401693
9 *664:16 0.0452025
10 *664:18 *665:20 1.94879e-05
11 *664:18 *665:22 0.0459979
12 *129:9 *664:16 0.00282242
13 *135:11 *664:18 0
14 *144:8 *664:18 0.000435879
15 *147:7 *664:16 2.20264e-05
16 *190:19 *664:18 0
17 *210:8 *664:16 0.000588692
18 *217:13 *664:22 0
19 *232:16 *664:16 0.000140775
20 *298:16 *664:16 2.85852e-05
21 *301:9 *664:18 0
22 *344:17 *664:18 0
23 *400:17 gpio_oeb[12] 0.000797317
24 *400:17 *664:32 0.0283212
25 *407:7 *664:16 0
26 *433:8 *664:18 0.000561395
27 *433:10 *664:16 0
28 *532:17 *664:18 0.000365404
29 *570:6 *664:18 0.00649817
*RES
1 *874:gpio_oeb[12] *664:16 26.5844 
2 *664:16 *664:18 1021.95 
3 *664:18 *664:20 3.41 
4 *664:20 *664:22 413.061 
5 *664:22 *664:24 3.41 
6 *664:24 *664:26 1821.55 
7 *664:26 *664:32 48.6851 
8 *664:32 gpio_oeb[12] 6.79698 
*END

*D_NET *665 0.782257
*CONN
*P gpio_oeb[13] O
*I *874:gpio_oeb[13] O *D counter_gpio_config_example
*CAP
1 gpio_oeb[13] 0.000103814
2 *874:gpio_oeb[13] 0.00404332
3 *665:34 0.168183
4 *665:32 0.168079
5 *665:30 0.0917903
6 *665:28 0.0935376
7 *665:22 0.0192308
8 *665:20 0.0215268
9 *665:30 *732:15 0.00112634
10 *665:30 *816:13 0.0938508
11 *665:34 *797:17 0
12 gpio_ib_mode_sel[13] *665:34 0.0002641
13 *129:9 *665:20 0.00180456
14 *135:9 *665:20 3.7538e-06
15 *144:8 *665:22 0.000487585
16 *201:7 *665:20 4.18099e-06
17 *298:16 *665:20 0.000537436
18 *322:13 *665:28 0.00404419
19 *344:17 *665:20 0.000322558
20 *360:13 *665:28 0
21 *401:17 *665:34 0
22 *433:8 *665:22 0.000561395
23 *433:10 *665:20 0
24 *456:11 *665:30 0.061875
25 *532:17 *665:20 0.000808321
26 *532:17 *665:22 0.000365404
27 *570:6 *665:22 0.00368854
28 *664:18 *665:20 1.94879e-05
29 *664:18 *665:22 0.0459979
*RES
1 *874:gpio_oeb[13] *665:20 33.903 
2 *665:20 *665:22 567.045 
3 *665:22 *665:28 13.353 
4 *665:28 *665:30 2596.27 
5 *665:30 *665:32 3.41 
6 *665:32 *665:34 457.753 
7 *665:34 gpio_oeb[13] 0.348583 
*END

*D_NET *666 1.07667
*CONN
*P gpio_oeb[14] O
*I *874:gpio_oeb[14] O *D counter_gpio_config_example
*CAP
1 gpio_oeb[14] 0.00163776
2 *874:gpio_oeb[14] 0.00375892
3 *666:21 0.10061
4 *666:19 0.0989727
5 *666:17 0.137417
6 *666:15 0.141176
7 *666:17 *808:13 0
8 *666:21 gpio_vtrip_sel[14] 0.00569041
9 gpio_ib_mode_sel[14] gpio_oeb[14] 0.000493341
10 *133:9 *666:15 0.000600814
11 *241:7 *666:15 0.000390825
12 *281:25 *666:21 0.0661769
13 *322:9 *666:17 0
14 *323:9 *666:17 0
15 *402:13 *666:21 0.293359
16 *411:7 *666:15 0.0002392
17 *412:9 *666:17 0.0444953
18 *431:9 *666:15 0.000106304
19 *439:7 *666:15 1.43076e-05
20 *439:9 *666:17 0.181535
21 *535:9 *666:17 0
22 *542:9 *666:17 0
*RES
1 *874:gpio_oeb[14] *666:15 19.4389 
2 *666:15 *666:17 3870.05 
3 *666:17 *666:19 3.41 
4 *666:19 *666:21 464.877 
5 *666:21 gpio_oeb[14] 14.1528 
*END

*D_NET *667 0.655834
*CONN
*P gpio_oeb[15] O
*I *874:gpio_oeb[15] O *D counter_gpio_config_example
*CAP
1 gpio_oeb[15] 8.83825e-05
2 *874:gpio_oeb[15] 0.0219454
3 *667:13 0.131708
4 *667:11 0.131619
5 *667:9 0.148694
6 *667:7 0.148694
7 *667:5 0.0219454
8 *667:5 *679:5 0
9 *667:5 *721:13 0
10 *667:5 *776:5 0
11 *667:9 *671:17 0
12 *667:9 *704:9 0
13 *667:13 *711:21 0.0511402
14 *667:13 *834:13 0
15 gpio_ib_mode_sel[15] gpio_oeb[15] 0
16 *403:21 *667:13 0
17 *465:11 *667:5 0
*RES
1 *874:gpio_oeb[15] *667:5 440.848 
2 *667:5 *667:7 3.41 
3 *667:7 *667:9 400.954 
4 *667:9 *667:11 3.41 
5 *667:11 *667:13 2711.62 
6 *667:13 gpio_oeb[15] 1.60714 
*END

*D_NET *668 0.564778
*CONN
*P gpio_oeb[16] O
*I *874:gpio_oeb[16] O *D counter_gpio_config_example
*CAP
1 gpio_oeb[16] 0.135622
2 *874:gpio_oeb[16] 0.0186236
3 *668:11 0.135622
4 *668:9 0.120363
5 *668:7 0.120363
6 *668:5 0.0186236
7 *668:5 *704:5 0
8 *668:5 *783:11 0
9 *668:9 *818:9 0.0155599
10 gpio_ib_mode_sel[16] gpio_oeb[16] 0
11 *271:19 *668:5 0
12 *481:7 *668:9 0
13 *545:22 *668:9 0
*RES
1 *874:gpio_oeb[16] *668:5 360.705 
2 *668:5 *668:7 3.41 
3 *668:7 *668:9 318.654 
4 *668:9 *668:11 3.41 
5 *668:11 gpio_oeb[16] 2792.92 
*END

*D_NET *669 0.696218
*CONN
*P gpio_oeb[17] O
*I *874:gpio_oeb[17] O *D counter_gpio_config_example
*CAP
1 gpio_oeb[17] 0.197462
2 *874:gpio_oeb[17] 0.000544997
3 *669:11 0.197462
4 *669:9 0.041717
5 *669:7 0.042262
6 *669:7 *703:51 0
7 gpio_ib_mode_sel[17] gpio_oeb[17] 0
8 *133:13 *669:9 0.0591544
9 *404:15 *669:9 0.145161
10 *457:23 *669:9 0.0124544
*RES
1 *874:gpio_oeb[17] *669:7 12.9107 
2 *669:7 *669:9 1373.55 
3 *669:9 *669:11 4.5 
4 *669:11 gpio_oeb[17] 4053.8 
*END

*D_NET *670 0.633148
*CONN
*P gpio_oeb[18] O
*I *874:gpio_oeb[18] O *D counter_gpio_config_example
*CAP
1 gpio_oeb[18] 0.197266
2 *874:gpio_oeb[18] 0.000144695
3 *670:11 0.197266
4 *670:9 0.0140096
5 *670:7 0.0141543
6 *670:7 *725:11 0
7 *670:7 *780:5 0
8 *670:9 *683:11 0.00287088
9 *670:9 *771:9 0.000416442
10 gpio_ib_mode_sel[18] gpio_oeb[18] 0
11 *443:15 *670:9 0.00760789
12 *448:9 *670:9 0.0879636
13 *450:17 *670:9 0.0885738
14 *459:23 *670:9 0.00165097
15 *469:23 *670:9 0.0109214
16 *483:15 *670:9 0.0012234
17 *567:15 *670:9 0.00907962
*RES
1 *874:gpio_oeb[18] *670:7 6.83929 
2 *670:7 *670:9 996.518 
3 *670:9 *670:11 4.5 
4 *670:11 gpio_oeb[18] 4047.73 
*END

*D_NET *671 0.638939
*CONN
*P gpio_oeb[19] O
*I *874:gpio_oeb[19] O *D counter_gpio_config_example
*CAP
1 gpio_oeb[19] 0.0836854
2 *874:gpio_oeb[19] 9.55223e-05
3 *671:19 0.0836854
4 *671:17 0.0385119
5 *671:15 0.0385119
6 *671:13 0.0600861
7 *671:11 0.0601816
8 gpio_oeb[19] *715:13 0.220017
9 *671:11 *673:11 0
10 *671:11 *683:7 0
11 *671:11 *683:11 2.81967e-05
12 *671:13 *673:13 0.0116905
13 *671:13 *706:13 0.0375276
14 *671:13 *707:5 0.00491752
15 gpio_ib_mode_sel[19] gpio_oeb[19] 0
16 *667:9 *671:17 0
*RES
1 *874:gpio_oeb[19] *671:11 8.17982 
2 *671:11 *671:13 233.035 
3 *671:13 *671:15 3.41 
4 *671:15 *671:17 101.193 
5 *671:17 *671:19 3.41 
6 *671:19 gpio_oeb[19] 2718.85 
*END

*D_NET *672 0.560105
*CONN
*P gpio_oeb[1] O
*I *874:gpio_oeb[1] O *D counter_gpio_config_example
*CAP
1 gpio_oeb[1] 0.00102002
2 *874:gpio_oeb[1] 0.00579611
3 *672:17 0.0769441
4 *672:15 0.0759241
5 *672:13 0.0186739
6 *672:11 0.02447
7 *672:11 *694:9 0.0214265
8 *672:11 *716:19 0.00316313
9 *672:11 *767:5 0
10 *672:11 *788:5 0
11 *672:13 *694:13 0.00704703
12 *672:13 *782:29 0.000505102
13 gpio_ib_mode_sel[1] gpio_oeb[1] 0.00025903
14 gpio_ib_mode_sel[1] *672:17 0.000333716
15 *108:13 *672:13 0
16 *146:13 *672:13 0
17 *205:17 *672:11 0.0214296
18 *278:11 *672:17 0.000374287
19 *278:13 *672:13 0
20 *303:9 *672:17 0.0474623
21 *408:17 *672:17 0.219375
22 *474:11 *672:13 0.0265724
23 *562:13 *672:13 0.00860049
24 *661:17 *672:11 0.000728085
*RES
1 *874:gpio_oeb[1] *672:11 43.4871 
2 *672:11 *672:13 574.482 
3 *672:13 *672:15 3.41 
4 *672:15 *672:17 365.821 
5 *672:17 gpio_oeb[1] 2.55288 
*END

*D_NET *673 0.604233
*CONN
*P gpio_oeb[20] O
*I *874:gpio_oeb[20] O *D counter_gpio_config_example
*CAP
1 gpio_oeb[20] 0.00117781
2 *874:gpio_oeb[20] 9.55114e-05
3 *673:17 0.016716
4 *673:15 0.0155382
5 *673:13 0.22981
6 *673:11 0.229906
7 *673:11 *683:11 2.81967e-05
8 *673:11 *810:11 0
9 *673:13 *687:13 0.00411633
10 *673:13 *706:13 0
11 *673:13 *757:5 0.04008
12 *673:13 *810:13 0.0176743
13 *673:17 *676:9 0
14 gpio_ib_mode_sel[20] gpio_oeb[20] 0
15 *361:13 *673:17 0.0374001
16 *671:11 *673:11 0
17 *671:13 *673:13 0.0116905
*RES
1 *874:gpio_oeb[20] *673:11 8.17982 
2 *673:11 *673:13 706.363 
3 *673:13 *673:15 3.41 
4 *673:15 *673:17 60.1866 
5 *673:17 gpio_oeb[20] 25.1779 
*END

*D_NET *674 0.647751
*CONN
*P gpio_oeb[21] O
*I *874:gpio_oeb[21] O *D counter_gpio_config_example
*CAP
1 gpio_oeb[21] 0.0024577
2 *874:gpio_oeb[21] 0.000693626
3 *674:13 0.158087
4 *674:11 0.155629
5 *674:9 0.00715603
6 *674:7 0.00784966
7 gpio_oeb[21] gpio_out[21] 0.0154229
8 *674:7 *805:11 0
9 *674:9 *813:9 0.000945775
10 *674:9 *827:9 0.026476
11 *674:13 *749:25 0
12 gpio_ib_mode_sel[21] gpio_oeb[21] 0
13 *95:13 gpio_oeb[21] 0.00700218
14 *99:13 gpio_oeb[21] 0.00047417
15 *102:13 gpio_oeb[21] 0.00471278
16 *169:13 *674:13 0
17 *170:13 *674:13 0
18 *214:13 *674:13 0
19 *357:21 *674:13 0.22705
20 *454:11 gpio_oeb[21] 0.000213361
21 *462:19 *674:9 0.00211083
22 *529:13 *674:9 0.0314696
*RES
1 *874:gpio_oeb[21] *674:7 14.4011 
2 *674:7 *674:9 50.7099 
3 *674:9 *674:11 3.41 
4 *674:11 *674:13 4054.62 
5 *674:13 gpio_oeb[21] 35.3665 
*END

*D_NET *675 0.471027
*CONN
*P gpio_oeb[22] O
*I *874:gpio_oeb[22] O *D counter_gpio_config_example
*CAP
1 gpio_oeb[22] 0.00322672
2 *874:gpio_oeb[22] 0.0974154
3 *675:5 0.100642
4 *675:5 *678:5 0
5 *675:5 *729:13 0.0157587
6 gpio_analog_en[22] *675:5 0.253346
7 gpio_dm0[22] *675:5 0
8 gpio_ib_mode_sel[22] gpio_oeb[22] 0
9 *190:27 *675:5 0
10 *366:13 gpio_oeb[22] 0.000638035
*RES
1 *874:gpio_oeb[22] *675:5 3138.99 
2 *675:5 gpio_oeb[22] 28.7076 
*END

*D_NET *676 0.373477
*CONN
*P gpio_oeb[23] O
*I *874:gpio_oeb[23] O *D counter_gpio_config_example
*CAP
1 gpio_oeb[23] 0.00144231
2 *874:gpio_oeb[23] 0.135201
3 *676:9 0.0252034
4 *676:7 0.0237611
5 *676:5 0.135201
6 *676:5 *691:7 0
7 *676:5 *754:13 0.00616628
8 *676:5 *757:5 0
9 *676:5 *791:13 0.0400014
10 *676:5 *810:13 0.00650037
11 *676:9 *720:9 0
12 gpio_ib_mode_sel[23] gpio_oeb[23] 0
13 *279:13 *676:9 0
14 *361:13 *676:9 0
15 *538:13 *676:9 0
16 *673:17 *676:9 0
*RES
1 *874:gpio_oeb[23] *676:5 3126.85 
2 *676:5 *676:7 3.41 
3 *676:7 *676:9 61.7361 
4 *676:9 gpio_oeb[23] 30.7225 
*END

*D_NET *677 0.42802
*CONN
*P gpio_oeb[24] O
*I *874:gpio_oeb[24] O *D counter_gpio_config_example
*CAP
1 gpio_oeb[24] 0.0027426
2 *874:gpio_oeb[24] 0.0083639
3 *677:17 0.0217431
4 *677:15 0.0190005
5 *677:13 0.105613
6 *677:11 0.113939
7 *677:5 0.0166905
8 gpio_oeb[24] *809:17 0
9 *677:5 gpio_slow_sel[22] 0.00694789
10 *677:5 *689:7 0
11 *677:5 *751:11 0
12 *677:13 *681:7 5.79809e-05
13 *677:13 *812:13 0.132921
14 *677:17 *809:17 0
15 gpio_ib_mode_sel[24] gpio_oeb[24] 0
16 *103:27 *677:5 0
*RES
1 *874:gpio_oeb[24] *677:5 194.348 
2 *677:5 *677:11 28.5591 
3 *677:11 *677:13 2775.98 
4 *677:13 *677:15 3.41 
5 *677:15 *677:17 50.3135 
6 *677:17 gpio_oeb[24] 6.06222 
*END

*D_NET *678 0.280715
*CONN
*P gpio_oeb[25] O
*I *874:gpio_oeb[25] O *D counter_gpio_config_example
*CAP
1 gpio_oeb[25] 0.0183592
2 *874:gpio_oeb[25] 0.00307204
3 *678:13 0.122387
4 *678:11 0.115187
5 *678:5 0.0142319
6 gpio_oeb[25] gpio_vtrip_sel[25] 0
7 *678:5 *688:5 0
8 *678:5 *753:13 0.00013668
9 *678:11 *732:11 0
10 *678:11 *791:11 0.00249815
11 gpio_analog_pol[22] *678:5 0
12 gpio_dm0[22] *678:5 0.00484244
13 gpio_ib_mode_sel[25] gpio_oeb[25] 0
14 *180:13 gpio_oeb[25] 0
15 *228:13 *678:11 0
16 *229:13 *678:11 0
17 *675:5 *678:5 0
*RES
1 *874:gpio_oeb[25] *678:5 77.1696 
2 *678:5 *678:11 36.3423 
3 *678:11 *678:13 2135.45 
4 *678:13 gpio_oeb[25] 48.9193 
*END

*D_NET *679 0.257012
*CONN
*P gpio_oeb[26] O
*I *874:gpio_oeb[26] O *D counter_gpio_config_example
*CAP
1 gpio_oeb[26] 0.00142585
2 *874:gpio_oeb[26] 0.0831078
3 *679:9 0.0228476
4 *679:7 0.0214218
5 *679:5 0.0831078
6 *679:5 *758:5 0
7 *679:5 *773:13 0.0447114
8 gpio_ib_mode_sel[26] gpio_oeb[26] 0.000390247
9 *667:5 *679:5 0
*RES
1 *874:gpio_oeb[26] *679:5 2011.53 
2 *679:5 *679:7 3.41 
3 *679:7 *679:9 55.6104 
4 *679:9 gpio_oeb[26] 19.5577 
*END

*D_NET *680 0.355174
*CONN
*P gpio_oeb[27] O
*I *874:gpio_oeb[27] O *D counter_gpio_config_example
*CAP
1 gpio_oeb[27] 0.00258579
2 *874:gpio_oeb[27] 0.00411016
3 *680:17 0.0264636
4 *680:15 0.0238778
5 *680:13 0.0304525
6 *680:11 0.0327764
7 *680:5 0.00643411
8 *680:5 *691:7 0
9 *680:5 *759:5 0
10 *680:11 *791:11 0.00470937
11 *680:13 *720:5 0.0541656
12 *680:13 *809:13 0.141962
13 *680:17 *812:19 0
14 gpio_ib_mode_sel[27] gpio_oeb[27] 0.000669435
15 gpio_ib_mode_sel[27] *680:17 0
16 *228:13 *680:11 0
17 *229:13 *680:11 0
18 *662:31 *680:17 0.0269673
*RES
1 *874:gpio_oeb[27] *680:5 77.1696 
2 *680:5 *680:11 15.1547 
3 *680:11 *680:13 1748.09 
4 *680:13 *680:15 3.41 
5 *680:15 *680:17 76.3296 
6 *680:17 gpio_oeb[27] 6.29408 
*END

*D_NET *681 0.206809
*CONN
*P gpio_oeb[28] O
*I *874:gpio_oeb[28] O *D counter_gpio_config_example
*CAP
1 gpio_oeb[28] 0.016599
2 *874:gpio_oeb[28] 2.24816e-05
3 *681:15 0.0865666
4 *681:13 0.0760912
5 *681:7 0.0143279
6 *681:5 0.00822678
7 *681:7 *734:7 0
8 *681:7 *789:5 0
9 *681:7 *812:13 0.00491745
10 gpio_ib_mode_sel[28] gpio_oeb[28] 0
11 *549:17 gpio_oeb[28] 0
12 *677:13 *681:7 5.79809e-05
*RES
1 *874:gpio_oeb[28] *681:5 0.473214 
2 *681:5 *681:7 195.018 
3 *681:7 *681:13 23.0099 
4 *681:13 *681:15 1438.45 
5 *681:15 gpio_oeb[28] 43.6271 
*END

*D_NET *682 0.289471
*CONN
*P gpio_oeb[29] O
*I *874:gpio_oeb[29] O *D counter_gpio_config_example
*CAP
1 gpio_oeb[29] 7.58194e-05
2 *874:gpio_oeb[29] 0.0455846
3 *682:9 0.0369737
4 *682:7 0.0368978
5 *682:5 0.0455846
6 *682:5 *745:5 0
7 *682:5 *774:5 0
8 *682:5 *796:13 0.114065
9 *682:9 gpio_vtrip_sel[29] 0
10 gpio_ib_mode_sel[29] *682:9 0.0102898
*RES
1 *874:gpio_oeb[29] *682:5 1442.63 
2 *682:5 *682:7 3.41 
3 *682:7 *682:9 100.088 
4 *682:9 gpio_oeb[29] 0.254583 
*END

*D_NET *683 0.417096
*CONN
*P gpio_oeb[2] O
*I *874:gpio_oeb[2] O *D counter_gpio_config_example
*CAP
1 gpio_oeb[2] 8.32847e-05
2 *874:gpio_oeb[2] 0.000145728
3 *683:17 0.125723
4 *683:15 0.12564
5 *683:13 0.016382
6 *683:11 0.0306347
7 *683:7 0.0143985
8 *683:7 *771:9 0
9 *683:11 *700:9 0.000648641
10 *683:11 *703:51 0.000162666
11 *683:11 *706:11 2.81967e-05
12 *683:11 *724:11 2.81967e-05
13 *683:11 *725:11 5.26694e-05
14 *683:11 *727:19 0.00242779
15 *683:11 *754:11 2.81967e-05
16 *683:11 *760:15 0.000118728
17 *683:11 *765:11 5.26694e-05
18 *683:11 *801:11 5.26694e-05
19 *683:11 *810:11 5.26694e-05
20 *683:11 *815:15 0.0218998
21 *683:11 *836:11 0.000481087
22 gpio_ib_mode_sel[2] *683:17 0
23 *874:gpio_in[1] *683:11 0.00380077
24 *874:gpio_in[20] *683:11 5.26694e-05
25 *874:gpio_in[21] *683:11 2.81967e-05
26 *874:gpio_in[22] *683:11 5.26694e-05
27 *874:gpio_in[23] *683:11 2.81967e-05
28 *874:gpio_in[2] *683:11 0.000113277
29 *874:gpio_in[30] *683:11 2.81967e-05
30 *874:gpio_in[31] *683:11 5.26694e-05
31 *874:gpio_in[32] *683:11 2.81967e-05
32 *874:gpio_in[33] *683:11 5.26694e-05
33 *874:gpio_in[34] *683:11 2.81967e-05
34 *874:gpio_in[3] *683:11 0
35 *874:gpio_in[5] *683:11 5.26694e-05
36 *874:gpio_in[6] *683:11 2.81967e-05
37 *177:11 *683:17 0
38 *281:13 *683:13 0
39 *309:13 *683:11 0
40 *312:9 *683:17 0.0189422
41 *357:17 *683:13 0.000106304
42 *376:11 *683:17 0.000458223
43 *419:17 *683:17 0
44 *443:15 *683:11 0.00121748
45 *444:11 *683:13 0.0416522
46 *446:11 *683:13 0.000115262
47 *447:13 *683:11 0.000536941
48 *448:9 *683:11 0.00126662
49 *450:17 *683:11 0.000676842
50 *459:23 *683:11 0.00189188
51 *469:23 *683:11 0.00247942
52 *483:15 *683:11 0.000466761
53 *567:15 *683:11 0.000536813
54 *567:21 *683:11 0.000120342
55 *567:23 *683:11 0.000313242
56 *670:9 *683:11 0.00287088
57 *671:11 *683:7 0
58 *671:11 *683:11 2.81967e-05
59 *673:11 *683:11 2.81967e-05
*RES
1 *874:gpio_oeb[2] *683:7 5.90107 
2 *683:7 *683:11 49.0752 
3 *683:11 *683:13 519.232 
4 *683:13 *683:15 3.41 
5 *683:15 *683:17 363.562 
6 *683:17 gpio_oeb[2] 0.27965 
*END

*D_NET *684 0.190751
*CONN
*P gpio_oeb[30] O
*I *874:gpio_oeb[30] O *D counter_gpio_config_example
*CAP
1 gpio_oeb[30] 0.0188656
2 *874:gpio_oeb[30] 0.00449383
3 *684:13 0.0753854
4 *684:11 0.0610021
5 *684:5 0.00897609
6 *684:5 *708:5 0
7 *684:5 *764:5 0
8 *684:11 *812:11 0.00691565
9 gpio_ib_mode_sel[30] gpio_oeb[30] 0.000649543
10 *228:13 *684:11 0.0144542
11 *359:13 *684:11 0
12 *420:18 gpio_oeb[30] 8.36199e-06
*RES
1 *874:gpio_oeb[30] *684:5 83.8482 
2 *684:5 *684:11 29.8563 
3 *684:11 *684:13 1161.59 
4 *684:13 gpio_oeb[30] 48.3459 
*END

*D_NET *685 0.206758
*CONN
*P gpio_oeb[31] O
*I *874:gpio_oeb[31] O *D counter_gpio_config_example
*CAP
1 gpio_oeb[31] 0.00290438
2 *874:gpio_oeb[31] 0.0047837
3 *685:17 0.0215403
4 *685:13 0.0492645
5 *685:11 0.0353835
6 *685:5 0.00953853
7 gpio_oeb[31] *729:17 0
8 *685:5 *688:21 0
9 *685:5 *768:5 0
10 *685:5 *787:7 0
11 *685:5 *807:13 0.000667494
12 *685:13 *725:21 0.0668555
13 *685:13 *811:13 0.00469219
14 *685:17 *729:17 0
15 gpio_ib_mode_sel[31] gpio_oeb[31] 0
16 *359:13 *685:11 0.0111282
17 *536:13 *685:11 0
*RES
1 *874:gpio_oeb[31] *685:5 90.5268 
2 *685:5 *685:11 24.6675 
3 *685:11 *685:13 963.661 
4 *685:13 *685:17 49.5436 
5 *685:17 gpio_oeb[31] 6.23142 
*END

*D_NET *686 0.121273
*CONN
*P gpio_oeb[32] O
*I *874:gpio_oeb[32] O *D counter_gpio_config_example
*CAP
1 gpio_oeb[32] 0.00155699
2 *874:gpio_oeb[32] 0.016328
3 *686:9 0.026633
4 *686:7 0.025076
5 *686:5 0.016328
6 gpio_oeb[32] gpio_vtrip_sel[32] 0
7 *686:5 *742:7 0
8 *686:5 *772:13 0.0338879
9 *686:5 *793:9 0
10 *686:5 *814:13 0.00133004
11 gpio_ib_mode_sel[32] gpio_oeb[32] 0
12 *422:17 gpio_oeb[32] 0.000132749
13 *462:15 gpio_oeb[32] 0
*RES
1 *874:gpio_oeb[32] *686:5 477.884 
2 *686:5 *686:7 3.41 
3 *686:7 *686:9 62.1685 
4 *686:9 gpio_oeb[32] 19.0069 
*END

*D_NET *687 0.111093
*CONN
*P gpio_oeb[33] O
*I *874:gpio_oeb[33] O *D counter_gpio_config_example
*CAP
1 gpio_oeb[33] 0.00270891
2 *874:gpio_oeb[33] 0.00304264
3 *687:17 0.0358565
4 *687:15 0.0331476
5 *687:13 0.0116131
6 *687:11 0.01289
7 *687:5 0.00431954
8 *687:5 *721:5 0
9 *687:5 *788:5 0
10 *687:13 *707:5 0
11 *687:13 *757:5 0
12 *406:13 *687:11 0.00274267
13 *423:17 gpio_oeb[33] 0.000655968
14 *423:17 *687:17 0
15 *537:13 *687:11 0
16 *673:13 *687:13 0.00411633
*RES
1 *874:gpio_oeb[33] *687:5 54.0982 
2 *687:5 *687:11 11.2631 
3 *687:11 *687:13 236.304 
4 *687:13 *687:15 3.41 
5 *687:15 *687:17 82.7435 
6 *687:17 gpio_oeb[33] 6.45702 
*END

*D_NET *688 0.0758782
*CONN
*P gpio_oeb[34] O
*I *874:gpio_oeb[34] O *D counter_gpio_config_example
*CAP
1 gpio_oeb[34] 0.00283303
2 *874:gpio_oeb[34] 0.00223536
3 *688:25 0.0282828
4 *688:23 0.0254497
5 *688:21 0.0025357
6 *688:19 0.00463091
7 *688:5 0.00433057
8 *688:5 *812:5 0
9 *688:25 *721:11 0.00101336
10 *688:25 *816:11 0.00135099
11 gpio_analog_pol[22] *688:5 0.00266181
12 gpio_ib_mode_sel[22] *688:21 0
13 gpio_ib_mode_sel[34] gpio_oeb[34] 0
14 gpio_ib_mode_sel[34] *688:25 0
15 gpio_inp_dis[22] *688:5 0
16 *141:13 *688:19 5.01305e-05
17 *317:13 *688:19 0.000503805
18 *424:44 gpio_oeb[34] 0
19 *536:13 *688:25 0
20 *678:5 *688:5 0
21 *685:5 *688:21 0
*RES
1 *874:gpio_oeb[34] *688:5 50.4554 
2 *688:5 *688:19 12.5634 
3 *688:19 *688:21 49.9107 
4 *688:21 *688:23 3.41 
5 *688:23 *688:25 63.2855 
6 *688:25 gpio_oeb[34] 6.06848 
*END

*D_NET *689 0.116545
*CONN
*P gpio_oeb[35] O
*I *874:gpio_oeb[35] O *D counter_gpio_config_example
*CAP
1 gpio_oeb[35] 0.00830908
2 *874:gpio_oeb[35] 0.000276886
3 *689:13 0.0100998
4 *689:11 0.00179072
5 *689:9 0.00942119
6 *689:7 0.00969808
7 gpio_oeb[35] gpio_vtrip_sel[35] 0.0114744
8 *689:9 *735:9 0.0326657
9 *689:9 *779:16 0.00336321
10 *689:9 *787:9 0.000360421
11 *689:13 *691:13 0.0037618
12 gpio_ib_mode_sel[35] gpio_oeb[35] 0.00015886
13 *101:9 *689:13 0
14 *260:9 *689:13 0.00724247
15 *425:17 *689:9 0.0179228
16 *568:5 *689:7 0
17 *677:5 *689:7 0
*RES
1 *874:gpio_oeb[35] *689:7 7.7225 
2 *689:7 *689:9 53.5205 
3 *689:9 *689:11 3.41 
4 *689:11 *689:13 90.5893 
5 *689:13 gpio_oeb[35] 27.608 
*END

*D_NET *690 0.200428
*CONN
*P gpio_oeb[36] O
*I *874:gpio_oeb[36] O *D counter_gpio_config_example
*CAP
1 gpio_oeb[36] 0.00367825
2 *874:gpio_oeb[36] 0.001582
3 *690:17 0.0239207
4 *690:15 0.0202424
5 *690:13 0.0240923
6 *690:11 0.0256743
7 *690:11 *727:19 0.00143839
8 *690:11 *760:11 0.00251261
9 *690:11 *771:9 0
10 *690:11 *782:15 0.000167887
11 *690:11 *830:5 0
12 *690:13 *710:11 2.81967e-05
13 *690:13 *726:9 0.00235243
14 *690:13 *727:19 0.000772038
15 *690:13 *728:11 5.26694e-05
16 *690:13 *729:11 2.81967e-05
17 *690:13 *730:9 0.00445753
18 *690:13 *730:19 0.00974197
19 *690:13 *731:9 0.00303425
20 *690:13 *731:19 0.0101016
21 *690:13 *743:11 2.81967e-05
22 *690:13 *753:11 7.19068e-05
23 *690:13 *755:11 2.81967e-05
24 *690:13 *761:11 5.26694e-05
25 *690:13 *762:11 2.81967e-05
26 *690:13 *777:9 0.0140728
27 *690:13 *798:11 5.26694e-05
28 *690:13 *800:11 2.81967e-05
29 *690:13 *806:11 5.26694e-05
30 *690:13 *807:11 5.26694e-05
31 *690:13 *814:11 5.26694e-05
32 *690:13 *817:11 5.26694e-05
33 *690:13 *835:11 2.81967e-05
34 *690:17 *777:13 0.0275699
35 gpio_ib_mode_sel[36] gpio_oeb[36] 0.00103354
36 *433:16 *690:13 0.000342911
37 *458:11 *690:17 0
38 *459:23 *690:13 0.00349047
39 *469:21 *690:13 0.000536265
40 *469:23 *690:13 0.00597515
41 *470:15 *690:11 6.90116e-05
42 *470:15 *690:13 0.000974288
43 *567:13 *690:13 4.37712e-06
44 *567:15 *690:11 0.000583617
45 *567:15 *690:13 0.0104024
46 *662:19 *690:13 0.000324656
47 *662:25 *690:13 0.000641629
*RES
1 *874:gpio_oeb[36] *690:11 12.2869 
2 *690:11 *690:13 72.51 
3 *690:13 *690:15 3.41 
4 *690:15 *690:17 609.696 
5 *690:17 gpio_oeb[36] 12.394 
*END

*D_NET *691 0.17317
*CONN
*P gpio_oeb[37] O
*I *874:gpio_oeb[37] O *D counter_gpio_config_example
*CAP
1 gpio_oeb[37] 0.00979213
2 *874:gpio_oeb[37] 0.000120198
3 *691:13 0.0295984
4 *691:11 0.0198063
5 *691:9 0.010968
6 *691:7 0.0110882
7 *691:9 *694:9 0.0167516
8 *691:9 *734:9 0.0195747
9 *691:9 *735:9 0.00136033
10 *691:9 *822:8 2.47301e-05
11 gpio_ib_mode_sel[37] gpio_oeb[37] 0.00012426
12 *101:9 *691:13 0
13 *107:7 gpio_oeb[37] 0
14 *173:9 *691:13 0
15 *205:17 *691:9 0.0404062
16 *260:9 *691:13 0.00727576
17 *373:7 gpio_oeb[37] 0.00251728
18 *529:9 *691:13 0
19 *676:5 *691:7 0
20 *680:5 *691:7 0
21 *689:13 *691:13 0.0037618
*RES
1 *874:gpio_oeb[37] *691:7 5.29393 
2 *691:7 *691:9 66.2763 
3 *691:9 *691:11 3.41 
4 *691:11 *691:13 476.125 
5 *691:13 gpio_oeb[37] 26.975 
*END

*D_NET *692 0.0680443
*CONN
*P gpio_oeb[38] O
*I *874:gpio_oeb[38] O *D counter_gpio_config_example
*CAP
1 gpio_oeb[38] 0.000119195
2 *874:gpio_oeb[38] 0.0023123
3 *692:13 0.00554327
4 *692:11 0.014245
5 *692:7 0.0111332
6 *692:7 *727:19 6.90348e-06
7 *692:7 *815:15 5.31531e-05
8 *692:7 *827:7 0
9 *692:11 *695:14 0
10 *692:11 *786:9 0.0207613
11 gpio_ib_mode_sel[38] *692:13 0.0136711
12 *252:42 *692:13 0.000198909
*RES
1 *874:gpio_oeb[38] *692:7 44.1511 
2 *692:7 *692:11 36.8959 
3 *692:11 *692:13 169.696 
4 *692:13 gpio_oeb[38] 2.50893 
*END

*D_NET *693 0.137204
*CONN
*P gpio_oeb[39] O
*I *874:gpio_oeb[39] O *D counter_gpio_config_example
*CAP
1 gpio_oeb[39] 0.0011977
2 *874:gpio_oeb[39] 0.00974
3 *693:9 0.058862
4 *693:7 0.0576643
5 *693:5 0.00974
6 *693:5 *778:11 0
7 *693:9 *736:16 0
8 gpio_analog_en[38] *693:9 0
9 gpio_analog_pol[39] *693:9 0
10 gpio_ib_mode_sel[39] gpio_oeb[39] 0
11 *431:13 *693:9 0
*RES
1 *874:gpio_oeb[39] *693:5 188.884 
2 *693:5 *693:7 3.41 
3 *693:7 *693:9 151.171 
4 *693:9 gpio_oeb[39] 25.5975 
*END

*D_NET *694 0.458892
*CONN
*P gpio_oeb[3] O
*I *874:gpio_oeb[3] O *D counter_gpio_config_example
*CAP
1 gpio_oeb[3] 0.00324117
2 *874:gpio_oeb[3] 0.000139062
3 *694:17 0.0991424
4 *694:15 0.0959013
5 *694:13 0.0061938
6 *694:11 0.0061938
7 *694:9 0.0120243
8 *694:7 0.0121634
9 gpio_oeb[3] *826:22 0.00058733
10 *694:7 *709:5 0
11 *694:7 *747:5 0
12 *694:9 *735:9 0.00205876
13 *694:9 *787:9 0.0366743
14 *694:13 *787:15 0.000703432
15 *694:17 *826:22 0
16 gpio_ib_mode_sel[3] gpio_oeb[3] 0
17 *108:13 *694:13 0
18 *188:9 *694:17 0.0406447
19 *205:17 *694:9 0.00126451
20 *230:9 *694:17 0.0923887
21 *238:17 *694:9 0.000533861
22 *259:29 *694:9 0.00324351
23 *282:17 *694:9 0.000569045
24 *672:11 *694:9 0.0214265
25 *672:13 *694:13 0.00704703
26 *691:9 *694:9 0.0167516
*RES
1 *874:gpio_oeb[3] *694:7 5.90107 
2 *694:7 *694:9 66.2042 
3 *694:9 *694:11 3.41 
4 *694:11 *694:13 168.911 
5 *694:13 *694:15 3.41 
6 *694:15 *694:17 361.353 
7 *694:17 gpio_oeb[3] 7.49102 
*END

*D_NET *695 0.342376
*CONN
*P gpio_oeb[40] O
*I *874:gpio_oeb[40] O *D counter_gpio_config_example
*CAP
1 gpio_oeb[40] 0.000101379
2 *874:gpio_oeb[40] 0.000354529
3 *695:22 0.00376235
4 *695:20 0.00382786
5 *695:18 0.00515966
6 *695:16 0.00499277
7 *695:14 0.0486358
8 *695:12 0.0486358
9 *695:10 0.0629122
10 *695:8 0.0632667
11 *695:8 *823:6 0.000790248
12 *695:10 *753:13 0
13 *695:14 *786:9 0
14 gpio_ib_mode_sel[40] *695:22 0
15 *205:17 *695:8 0.000160957
16 *388:17 *695:14 0.0676197
17 *428:15 *695:14 0.0321556
18 *477:11 *695:14 0
19 *692:11 *695:14 0
*RES
1 *874:gpio_oeb[40] *695:8 8.12817 
2 *695:8 *695:10 162.51 
3 *695:10 *695:12 3.41 
4 *695:12 *695:14 179.385 
5 *695:14 *695:16 3.41 
6 *695:16 *695:18 101.357 
7 *695:18 *695:20 3.41071 
8 *695:20 *695:22 73.9286 
9 *695:22 gpio_oeb[40] 2.13393 
*END

*D_NET *696 0.318049
*CONN
*P gpio_oeb[41] O
*I *874:gpio_oeb[41] O *D counter_gpio_config_example
*CAP
1 gpio_oeb[41] 0.000979706
2 *874:gpio_oeb[41] 0.000284406
3 *696:18 0.00349084
4 *696:16 0.00251113
5 *696:14 0.0852064
6 *696:12 0.0852064
7 *696:10 0.0480422
8 *696:8 0.0483266
9 *696:8 *823:6 0.000903786
10 *696:10 *807:13 0.0378989
11 *696:10 *835:13 0
12 *696:14 *825:14 0
13 gpio_ib_mode_sel[41] gpio_oeb[41] 2.25008e-05
14 *205:17 *696:8 0.000198585
15 *211:17 *696:14 0
16 *345:13 *696:18 0
17 *345:17 *696:18 0
18 *432:23 gpio_oeb[41] 0
19 *432:23 *696:18 0.00497748
*RES
1 *874:gpio_oeb[41] *696:8 8.2723 
2 *696:8 *696:10 177.638 
3 *696:10 *696:12 3.41 
4 *696:12 *696:14 225.508 
5 *696:14 *696:16 3.41 
6 *696:16 *696:18 73.7411 
7 *696:18 gpio_oeb[41] 28.0893 
*END

*D_NET *697 0.313658
*CONN
*P gpio_oeb[42] O
*I *874:gpio_oeb[42] O *D counter_gpio_config_example
*CAP
1 gpio_oeb[42] 8.78055e-05
2 *874:gpio_oeb[42] 0.00351729
3 *697:13 0.00712328
4 *697:11 0.00703547
5 *697:9 0.0651956
6 *697:7 0.0651956
7 *697:5 0.00351729
8 *697:5 *737:5 0
9 *697:5 *753:11 0
10 *301:13 *697:9 0.161986
11 *302:13 *697:9 0
*RES
1 *874:gpio_oeb[42] *697:5 65.0268 
2 *697:5 *697:7 3.41 
3 *697:7 *697:9 265.108 
4 *697:9 *697:11 3.41 
5 *697:11 *697:13 145.411 
6 *697:13 gpio_oeb[42] 1.84821 
*END

*D_NET *698 0.353012
*CONN
*P gpio_oeb[43] O
*I *874:gpio_oeb[43] O *D counter_gpio_config_example
*CAP
1 gpio_oeb[43] 0.00727588
2 *874:gpio_oeb[43] 0.00314388
3 *698:11 0.00727588
4 *698:9 0.0738186
5 *698:7 0.0738186
6 *698:5 0.00314388
7 *698:5 *782:15 0
8 *698:5 *792:11 0
9 *302:13 *698:9 0.184536
10 *434:13 *698:9 0
*RES
1 *874:gpio_oeb[43] *698:5 58.9554 
2 *698:5 *698:7 3.41 
3 *698:7 *698:9 300.781 
4 *698:9 *698:11 3.41 
5 *698:11 gpio_oeb[43] 151.42 
*END

*D_NET *699 0.325366
*CONN
*P gpio_oeb[4] O
*I *874:gpio_oeb[4] O *D counter_gpio_config_example
*CAP
1 gpio_oeb[4] 0.00131187
2 *874:gpio_oeb[4] 0.0015348
3 *699:9 0.154417
4 *699:7 0.15464
5 *699:7 *752:5 0
6 *699:9 gpio_vtrip_sel[4] 0
7 gpio_ib_mode_sel[4] gpio_oeb[4] 0.00190782
8 gpio_ib_mode_sel[4] *699:9 0.00292851
9 *142:13 *699:9 0
10 *290:17 *699:9 0.0053838
11 *553:18 *699:9 0.00324193
*RES
1 *874:gpio_oeb[4] *699:7 28.9725 
2 *699:7 *699:9 407.007 
3 *699:9 gpio_oeb[4] 11.7994 
*END

*D_NET *700 0.607866
*CONN
*P gpio_oeb[5] O
*I *874:gpio_oeb[5] O *D counter_gpio_config_example
*CAP
1 gpio_oeb[5] 0.00359384
2 *874:gpio_oeb[5] 5.7345e-05
3 *700:13 0.0368135
4 *700:11 0.0332196
5 *700:9 0.070638
6 *700:7 0.0706953
7 *700:7 *801:11 0
8 gpio_analog_pol[1] *700:13 0.00109563
9 gpio_ib_mode_sel[5] gpio_oeb[5] 0
10 *874:gpio_in[12] *700:9 0.0007035
11 *874:gpio_in[14] *700:9 0.000575784
12 *874:gpio_in[17] *700:9 0.00085302
13 *874:gpio_in[1] *700:9 0.000117122
14 *348:13 *700:13 0.0086398
15 *436:17 gpio_oeb[5] 0
16 *443:15 *700:9 0.0406634
17 *445:15 *700:9 0.00376903
18 *446:17 *700:9 0.00225022
19 *459:23 *700:9 0.0049509
20 *480:11 *700:13 0.00683622
21 *483:11 *700:13 0.0910699
22 *483:15 *700:9 0.230675
23 *683:11 *700:9 0.000648641
*RES
1 *874:gpio_oeb[5] *700:7 5.625 
2 *700:7 *700:9 2269.73 
3 *700:9 *700:11 4.5 
4 *700:11 *700:13 1121.97 
5 *700:13 gpio_oeb[5] 11.5089 
*END

*D_NET *701 0.687883
*CONN
*P gpio_oeb[6] O
*I *874:gpio_oeb[6] O *D counter_gpio_config_example
*CAP
1 gpio_oeb[6] 0.00296384
2 *874:gpio_oeb[6] 0.000874258
3 *701:13 0.0673916
4 *701:11 0.0644278
5 *701:9 0.0850436
6 *701:7 0.0859178
7 *701:7 *713:7 0
8 *701:7 *819:7 0
9 *701:9 *702:9 0.000734179
10 *701:9 *713:17 0.0611554
11 *701:9 *714:19 0.000308379
12 *701:9 *794:9 0.255102
13 *701:9 *832:9 0
14 gpio_ib_mode_sel[6] gpio_oeb[6] 0.00254418
15 gpio_inp_dis[5] *701:13 0.00285345
16 *529:13 *701:9 0.0575376
17 *564:10 *701:9 0.00102848
*RES
1 *874:gpio_oeb[6] *701:7 17.4368 
2 *701:7 *701:9 423.439 
3 *701:9 *701:11 3.41 
4 *701:11 *701:13 1332.2 
5 *701:13 gpio_oeb[6] 21.351 
*END

*D_NET *702 0.702057
*CONN
*P gpio_oeb[7] O
*I *874:gpio_oeb[7] O *D counter_gpio_config_example
*CAP
1 gpio_oeb[7] 0.00494222
2 *874:gpio_oeb[7] 0.000968369
3 *702:13 0.108482
4 *702:11 0.10354
5 *702:9 0.0633928
6 *702:7 0.0643612
7 gpio_oeb[7] gpio_vtrip_sel[7] 0
8 *702:7 *780:5 0
9 *702:7 *836:11 0
10 *702:9 *718:9 0.0271809
11 *702:9 *794:9 0.242619
12 *702:9 *832:9 0.0319182
13 gpio_ib_mode_sel[7] gpio_oeb[7] 0.000395582
14 *564:10 *702:9 0.0535231
15 *701:9 *702:9 0.000734179
*RES
1 *874:gpio_oeb[7] *702:7 18.6511 
2 *702:7 *702:9 392.378 
3 *702:9 *702:11 3.41 
4 *702:11 *702:13 2127.55 
5 *702:13 gpio_oeb[7] 15.1404 
*END

*D_NET *703 0.573478
*CONN
*P gpio_oeb[8] O
*I *874:gpio_oeb[8] O *D counter_gpio_config_example
*CAP
1 gpio_oeb[8] 0.01258
2 *874:gpio_oeb[8] 0.0101831
3 *703:187 0.0686269
4 *703:185 0.0560469
5 *703:183 0.135895
6 *703:181 0.135895
7 *703:179 0.0135617
8 *703:177 0.0212673
9 *703:139 0.0205018
10 *703:91 0.0261792
11 *703:51 0.023566
12 gpio_oeb[8] gpio_vtrip_sel[8] 0
13 *703:51 *784:24 0.00335551
14 *703:51 *784:28 0.0100899
15 *703:91 *784:14 0.00552455
16 *703:91 *784:24 0.00372698
17 *703:139 *784:12 0.00370677
18 *703:139 *784:14 0.00813293
19 *703:177 *740:16 0.000647503
20 *703:177 *749:19 0.000146824
21 *703:177 *784:12 0.013089
22 *703:177 *796:11 0
23 *703:177 *826:14 0.000143819
24 *703:179 *796:11 0
25 gpio_ib_mode_sel[8] gpio_oeb[8] 0
26 *122:193 *703:139 0.000112686
27 *251:26 *703:139 0.000225372
28 *439:13 gpio_oeb[8] 0
29 *661:15 *703:177 0.000110987
30 *669:7 *703:51 0
31 *683:11 *703:51 0.000162666
*RES
1 *874:gpio_oeb[8] *703:51 49.7529 
2 *703:51 *703:91 48.8111 
3 *703:91 *703:139 49.8639 
4 *703:139 *703:177 46.881 
5 *703:177 *703:179 261.821 
6 *703:179 *703:181 3.41 
7 *703:181 *703:183 368.164 
8 *703:183 *703:185 3.41 
9 *703:185 *703:187 1155.52 
10 *703:187 gpio_oeb[8] 34.3164 
*END

*D_NET *704 0.530731
*CONN
*P gpio_oeb[9] O
*I *874:gpio_oeb[9] O *D counter_gpio_config_example
*CAP
1 gpio_oeb[9] 0.00624223
2 *874:gpio_oeb[9] 0.0230164
3 *704:13 0.063217
4 *704:11 0.0569747
5 *704:9 0.154772
6 *704:7 0.154772
7 *704:5 0.0230164
8 *704:5 *781:15 0
9 *136:13 *704:13 0.0393204
10 *271:19 *704:5 6.40202e-05
11 *440:13 gpio_oeb[9] 0.00933522
12 *667:9 *704:9 0
13 *668:5 *704:5 0
*RES
1 *874:gpio_oeb[9] *704:5 446.92 
2 *704:5 *704:7 3.41 
3 *704:7 *704:9 417.025 
4 *704:9 *704:11 3.41 
5 *704:11 *704:13 1174.95 
6 *704:13 gpio_oeb[9] 24.1206 
*END

*D_NET *705 0.465321
*CONN
*P gpio_out[0] O
*I *874:gpio_out[0] O *D counter_gpio_config_example
*CAP
1 gpio_out[0] 0.000105358
2 *874:gpio_out[0] 0.0168886
3 *705:45 0.139523
4 *705:43 0.139418
5 *705:41 0.0260098
6 *705:39 0.0267713
7 *705:35 0.0176501
8 *705:35 *749:19 0.00149102
9 *705:35 *757:5 0
10 *705:35 *779:16 0.00046754
11 *705:35 *787:9 0.00107831
12 *705:35 *824:8 0.0023851
13 *705:35 *825:8 4.08767e-05
14 *705:35 *826:12 0.000552467
15 *705:35 *829:16 0.0100457
16 *705:39 *740:18 0
17 *705:39 *749:21 0.00257679
18 gpio_holdover[0] *705:45 0.00442077
19 *104:13 *705:41 0
20 *146:17 *705:39 0.0017359
21 *146:27 *705:35 0.000139156
22 *177:17 *705:45 0
23 *205:17 *705:35 0.0068823
24 *240:19 *705:35 0.000302529
25 *278:13 *705:41 0
26 *278:21 *705:41 0.0027336
27 *367:15 *705:41 0.000254602
28 *367:17 *705:41 0.00067091
29 *372:23 *705:35 2.46153e-05
30 *410:13 *705:41 0.00327645
31 *425:17 *705:35 0.00139712
32 *545:18 *705:35 2.77245e-05
33 *661:21 *705:41 0.000912434
34 *661:25 *705:41 0.0575392
*RES
1 *874:gpio_out[0] *705:35 39.0235 
2 *705:35 *705:39 29.6786 
3 *705:39 *705:41 789.866 
4 *705:41 *705:43 3.41 
5 *705:43 *705:45 366.949 
6 *705:45 gpio_out[0] 0.325083 
*END

*D_NET *706 0.696844
*CONN
*P gpio_out[10] O
*I *874:gpio_out[10] O *D counter_gpio_config_example
*CAP
1 gpio_out[10] 5.61063e-05
2 *874:gpio_out[10] 0.00100954
3 *706:17 0.157618
4 *706:15 0.157562
5 *706:13 0.149609
6 *706:11 0.150619
7 *706:11 *711:15 0
8 *706:11 *727:19 0.000649309
9 *706:11 *813:7 0
10 *706:13 *707:5 0.000303748
11 *706:13 *767:13 0.00758098
12 *706:13 *790:5 0.0342803
13 *706:17 gpio_vtrip_sel[10] 0
14 gpio_holdover[10] *706:17 0
15 *310:17 *706:17 0
16 *671:13 *706:13 0.0375276
17 *673:13 *706:13 0
18 *683:11 *706:11 2.81967e-05
*RES
1 *874:gpio_out[10] *706:11 10.7022 
2 *706:11 *706:13 474.76 
3 *706:13 *706:15 3.41 
4 *706:15 *706:17 409.144 
5 *706:17 gpio_out[10] 0.173117 
*END

*D_NET *707 0.526981
*CONN
*P gpio_out[11] O
*I *874:gpio_out[11] O *D counter_gpio_config_example
*CAP
1 gpio_out[11] 0.00319416
2 *874:gpio_out[11] 0.02352
3 *707:17 0.0169716
4 *707:15 0.0137774
5 *707:13 0.074673
6 *707:11 0.074673
7 *707:9 0.128036
8 *707:7 0.128036
9 *707:5 0.02352
10 *707:5 *790:5 0
11 gpio_holdover[11] gpio_out[11] 0.000268602
12 *355:17 gpio_out[11] 0
13 *355:17 *707:17 0.035091
14 *671:13 *707:5 0.00491752
15 *687:13 *707:5 0
16 *706:13 *707:5 0.000303748
*RES
1 *874:gpio_out[11] *707:5 471.812 
2 *707:5 *707:7 3.41 
3 *707:7 *707:9 346.616 
4 *707:9 *707:11 3.41 
5 *707:11 *707:13 1538.02 
6 *707:13 *707:15 3.41 
7 *707:15 *707:17 55.7185 
8 *707:17 gpio_out[11] 7.28265 
*END

*D_NET *708 0.641109
*CONN
*P gpio_out[12] O
*I *874:gpio_out[12] O *D counter_gpio_config_example
*CAP
1 gpio_out[12] 0.00745909
2 *874:gpio_out[12] 0.015858
3 *708:13 0.100173
4 *708:11 0.0927142
5 *708:9 0.142152
6 *708:7 0.142152
7 *708:5 0.015858
8 gpio_out[12] *796:17 0
9 *708:5 *773:5 0
10 *708:9 *712:9 0
11 gpio_holdover[12] gpio_out[12] 0.01371
12 *137:17 *708:13 0.0738013
13 *335:17 *708:9 0.037231
14 *684:5 *708:5 0
*RES
1 *874:gpio_out[12] *708:5 305.455 
2 *708:5 *708:7 3.41 
3 *708:7 *708:9 403.548 
4 *708:9 *708:11 3.41 
5 *708:11 *708:13 1907.77 
6 *708:13 gpio_out[12] 29.2185 
*END

*D_NET *709 0.662312
*CONN
*P gpio_out[13] O
*I *874:gpio_out[13] O *D counter_gpio_config_example
*CAP
1 gpio_out[13] 0.162524
2 *874:gpio_out[13] 0.127583
3 *709:12 0
4 *709:7 0.162524
5 *709:5 0.127583
6 *709:5 *722:13 0
7 *709:5 *762:13 0.0820983
8 *709:5 *763:5 0
9 gpio_dm2[13] gpio_out[13] 0
10 gpio_holdover[13] gpio_out[13] 0
11 *357:25 gpio_out[13] 0
12 *401:17 gpio_out[13] 0
13 *694:7 *709:5 0
*RES
1 *874:gpio_out[13] *709:5 2613.21 
2 *709:5 *709:7 3.41 
3 *709:7 gpio_out[13] 434.404 
4 gpio_out[13] *709:12 0.0762162 
*END

*D_NET *710 0.815106
*CONN
*P gpio_out[14] O
*I *874:gpio_out[14] O *D counter_gpio_config_example
*CAP
1 gpio_out[14] 0.00327239
2 *874:gpio_out[14] 0.000115629
3 *710:21 0.0381734
4 *710:19 0.034901
5 *710:17 0.155236
6 *710:15 0.155236
7 *710:13 0.199001
8 *710:11 0.199117
9 *710:11 *814:11 0
10 *710:11 *819:7 0
11 *710:13 *798:13 0
12 *710:13 *814:13 0.028172
13 *192:13 *710:17 0
14 *358:17 gpio_out[14] 0.00185362
15 *690:13 *710:11 2.81967e-05
*RES
1 *874:gpio_out[14] *710:11 8.17982 
2 *710:11 *710:13 558.388 
3 *710:13 *710:15 3.41 
4 *710:15 *710:17 423.331 
5 *710:17 *710:19 3.41 
6 *710:19 *710:21 718.982 
7 *710:21 gpio_out[14] 12.217 
*END

*D_NET *711 1.20005
*CONN
*P gpio_out[15] O
*I *874:gpio_out[15] O *D counter_gpio_config_example
*CAP
1 gpio_out[15] 0.000721323
2 *874:gpio_out[15] 0.002088
3 *711:21 0.247455
4 *711:19 0.415179
5 *711:15 0.170534
6 *711:15 *727:19 0.00017962
7 *711:19 *714:19 0.0748431
8 *711:19 *715:9 0.00971625
9 *711:19 *717:9 0.00478027
10 *711:19 *744:9 0.0343064
11 *711:19 *756:9 0.03247
12 *711:19 *831:9 0.0408497
13 *711:19 *833:9 0.0352432
14 *711:21 *834:13 0.0294467
15 gpio_holdover[15] gpio_out[15] 0
16 *95:13 gpio_out[15] 0.00182936
17 *226:13 *711:21 0
18 *313:13 *711:21 0
19 *389:13 *711:19 0.0392284
20 *477:11 *711:19 0.0100372
21 *667:13 *711:21 0.0511402
22 *706:11 *711:15 0
*RES
1 *874:gpio_out[15] *711:15 12.2321 
2 *711:15 *711:19 42.9341 
3 *711:19 *711:21 713.288 
4 *711:21 gpio_out[15] 10.9544 
*END

*D_NET *712 0.540172
*CONN
*P gpio_out[16] O
*I *874:gpio_out[16] O *D counter_gpio_config_example
*CAP
1 gpio_out[16] 0.144004
2 *874:gpio_out[16] 0.0155382
3 *712:11 0.144004
4 *712:9 0.107989
5 *712:7 0.107989
6 *712:5 0.0155382
7 *712:5 *809:11 0
8 gpio_holdover[16] gpio_out[16] 0
9 *423:17 *712:9 0.00510879
10 *661:15 *712:5 0
11 *708:9 *712:9 0
*RES
1 *874:gpio_out[16] *712:5 299.384 
2 *712:5 *712:7 3.41 
3 *712:7 *712:9 296.89 
4 *712:9 *712:11 3.41 
5 *712:11 gpio_out[16] 2854.24 
*END

*D_NET *713 0.672378
*CONN
*P gpio_out[17] O
*I *874:gpio_out[17] O *D counter_gpio_config_example
*CAP
1 gpio_out[17] 0.197715
2 *874:gpio_out[17] 0.00102601
3 *713:19 0.197715
4 *713:17 0.0636573
5 *713:15 0.0638842
6 *713:9 0.00691793
7 *713:7 0.00771702
8 *713:7 *730:7 0
9 *713:9 *714:19 0.00375765
10 *713:9 *832:9 0.0344162
11 gpio_holdover[17] gpio_out[17] 0
12 *564:10 *713:9 0.0344162
13 *701:7 *713:7 0
14 *701:9 *713:17 0.0611554
*RES
1 *874:gpio_out[17] *713:7 20.4725 
2 *713:7 *713:9 54.6015 
3 *713:9 *713:15 11.5261 
4 *713:15 *713:17 1251.98 
5 *713:17 *713:19 4.5 
6 *713:19 gpio_out[17] 4058.96 
*END

*D_NET *714 0.80855
*CONN
*P gpio_out[18] O
*I *874:gpio_out[18] O *D counter_gpio_config_example
*CAP
1 gpio_out[18] 0.000604176
2 *874:gpio_out[18] 0.0803995
3 *714:21 0.247187
4 *714:19 0.326982
5 *714:19 *715:7 0
6 *714:19 *715:9 0.000235586
7 *714:19 *717:9 0.000471171
8 *714:19 *744:9 0.000352467
9 *714:19 *756:9 0.000274826
10 *714:19 *831:9 0.000313881
11 *714:19 *832:9 0.0173504
12 *714:19 *833:9 0.000533822
13 gpio_dm2[18] gpio_out[18] 0
14 gpio_holdover[18] gpio_out[18] 0
15 gpio_holdover[18] *714:21 0.0365642
16 *389:13 *714:19 0.000235586
17 *529:13 *714:19 8.78429e-05
18 *564:10 *714:19 0.0180484
19 *701:9 *714:19 0.000308379
20 *711:19 *714:19 0.0748431
21 *713:9 *714:19 0.00375765
*RES
1 *874:gpio_out[18] *714:19 44.1645 
2 *714:19 *714:21 711.05 
3 *714:21 gpio_out[18] 17.9662 
*END

*D_NET *715 0.700028
*CONN
*P gpio_out[19] O
*I *874:gpio_out[19] O *D counter_gpio_config_example
*CAP
1 gpio_out[19] 0.00150031
2 *874:gpio_out[19] 0.00129605
3 *715:13 0.151239
4 *715:11 0.149739
5 *715:9 0.0131876
6 *715:7 0.0144837
7 *715:9 *756:9 0.069304
8 gpio_dm1[19] gpio_out[19] 0
9 gpio_holdover[19] gpio_out[19] 0
10 gpio_ib_mode_sel[19] *715:13 0
11 gpio_oeb[19] *715:13 0.220017
12 *389:13 *715:9 0.0693098
13 *711:19 *715:9 0.00971625
14 *714:19 *715:7 0
15 *714:19 *715:9 0.000235586
*RES
1 *874:gpio_out[19] *715:7 25.3296 
2 *715:7 *715:9 109.805 
3 *715:9 *715:11 3.41 
4 *715:11 *715:13 4056.45 
5 *715:13 gpio_out[19] 20.2363 
*END

*D_NET *716 0.451275
*CONN
*P gpio_out[1] O
*I *874:gpio_out[1] O *D counter_gpio_config_example
*CAP
1 gpio_out[1] 0.000185617
2 *874:gpio_out[1] 0.000754139
3 *716:27 0.128591
4 *716:25 0.128405
5 *716:23 0.0164135
6 *716:21 0.0164135
7 *716:19 0.00682304
8 *716:17 0.00757718
9 *716:17 *764:5 0
10 *716:17 *823:6 0.000306802
11 *716:19 *793:11 0.0378363
12 *716:27 gpio_vtrip_sel[1] 0
13 *130:11 *716:27 0.00122352
14 *148:13 *716:23 0
15 *205:17 *716:17 0.00142961
16 *205:17 *716:19 0.00102755
17 *222:9 *716:27 0.0171599
18 *238:17 *716:19 0.000221544
19 *259:29 *716:19 0.00456112
20 *282:17 *716:19 0.000180901
21 *320:17 *716:27 0
22 *479:11 *716:23 0.0442732
23 *531:13 *716:23 0.000799822
24 *533:21 *716:23 0
25 *544:13 *716:23 0
26 *561:13 *716:23 0.0147046
27 *661:17 *716:19 0.0192239
28 *672:11 *716:19 0.00316313
*RES
1 *874:gpio_out[1] *716:17 16.7803 
2 *716:17 *716:19 360.321 
3 *716:19 *716:21 4.5 
4 *716:21 *716:23 587.384 
5 *716:23 *716:25 3.41 
6 *716:25 *716:27 364.715 
7 *716:27 gpio_out[1] 0.607083 
*END

*D_NET *717 0.550409
*CONN
*P gpio_out[20] O
*I *874:gpio_out[20] O *D counter_gpio_config_example
*CAP
1 gpio_out[20] 8.42969e-05
2 *874:gpio_out[20] 0.0013525
3 *717:13 0.138667
4 *717:11 0.138583
5 *717:9 0.018144
6 *717:7 0.0194965
7 *717:7 *806:11 0
8 gpio_holdover[20] gpio_out[20] 0
9 gpio_holdover[20] *717:13 0
10 *375:17 *717:13 0.00156915
11 *389:13 *717:9 0.0465411
12 *436:13 *717:13 0.00979077
13 *477:11 *717:9 0
14 *541:13 *717:13 0.148199
15 *567:27 *717:13 0.0227305
16 *711:19 *717:9 0.00478027
17 *714:19 *717:9 0.000471171
*RES
1 *874:gpio_out[20] *717:7 26.5439 
2 *717:7 *717:9 73.8433 
3 *717:9 *717:11 3.41 
4 *717:11 *717:13 4067.38 
5 *717:13 gpio_out[20] 1.60714 
*END

*D_NET *718 0.530386
*CONN
*P gpio_out[21] O
*I *874:gpio_out[21] O *D counter_gpio_config_example
*CAP
1 gpio_out[21] 0.00371526
2 *874:gpio_out[21] 0.000951508
3 *718:13 0.209579
4 *718:11 0.205864
5 *718:9 0.00818784
6 *718:7 0.00913935
7 *718:7 *743:11 0
8 *718:9 *794:9 0.00468001
9 gpio_holdover[21] gpio_out[21] 0
10 gpio_oeb[21] gpio_out[21] 0.0154229
11 *95:13 gpio_out[21] 0.000539314
12 *99:13 gpio_out[21] 0.00835622
13 *564:10 *718:9 0.0367694
14 *702:9 *718:9 0.0271809
*RES
1 *874:gpio_out[21] *718:7 19.2582 
2 *718:7 *718:9 58.421 
3 *718:9 *718:11 3.41 
4 *718:11 *718:13 4058.88 
5 *718:13 gpio_out[21] 35.6854 
*END

*D_NET *719 0.355339
*CONN
*P gpio_out[22] O
*I *874:gpio_out[22] O *D counter_gpio_config_example
*CAP
1 gpio_out[22] 0.0612264
2 *874:gpio_out[22] 0.0644085
3 *719:11 0.0653958
4 *719:5 0.0685778
5 *719:5 *751:13 0.0843893
6 *719:5 *775:5 0
7 *719:5 *792:13 0.0113408
8 *719:5 *834:5 0
9 *719:11 *765:17 0
10 gpio_holdover[22] gpio_out[22] 0
*RES
1 *874:gpio_out[22] *719:5 1894.96 
2 *719:5 *719:11 17.1725 
3 *719:11 gpio_out[22] 1258.67 
*END

*D_NET *720 0.375612
*CONN
*P gpio_out[23] O
*I *874:gpio_out[23] O *D counter_gpio_config_example
*CAP
1 gpio_out[23] 0.00120372
2 *874:gpio_out[23] 0.12873
3 *720:9 0.014604
4 *720:7 0.0134002
5 *720:5 0.12873
6 *720:5 *802:5 0
7 *720:5 *809:13 0
8 gpio_holdover[23] gpio_out[23] 0.00256056
9 *538:13 *720:9 0.0322176
10 *676:9 *720:9 0
11 *680:13 *720:5 0.0541656
*RES
1 *874:gpio_out[23] *720:5 3121.38 
2 *720:5 *720:7 3.41 
3 *720:7 *720:9 51.8629 
4 *720:9 gpio_out[23] 37.4189 
*END

*D_NET *721 0.42029
*CONN
*P gpio_out[24] O
*I *874:gpio_out[24] O *D counter_gpio_config_example
*CAP
1 gpio_out[24] 0.000301645
2 *874:gpio_out[24] 0.00522788
3 *721:17 0.0220978
4 *721:15 0.0217961
5 *721:13 0.123185
6 *721:11 0.132679
7 *721:5 0.0147219
8 *721:13 *776:5 0.00472369
9 *721:13 *789:5 0
10 *721:17 gpio_vtrip_sel[24] 0
11 *721:17 *809:17 0
12 gpio_holdover[24] *721:17 0
13 gpio_ib_mode_sel[24] *721:17 0
14 *465:11 *721:13 0.0728664
15 *468:13 *721:13 0
16 *536:13 *721:11 0.0216782
17 *667:5 *721:13 0
18 *687:5 *721:5 0
19 *688:25 *721:11 0.00101336
*RES
1 *874:gpio_out[24] *721:5 96.5982 
2 *721:5 *721:11 42.1076 
3 *721:11 *721:13 2885.27 
4 *721:13 *721:15 3.41 
5 *721:15 *721:17 56.776 
6 *721:17 gpio_out[24] 1.01285 
*END

*D_NET *722 0.313932
*CONN
*P gpio_out[25] O
*I *874:gpio_out[25] O *D counter_gpio_config_example
*CAP
1 gpio_out[25] 0.00025312
2 *874:gpio_out[25] 0.00358469
3 *722:17 0.0242139
4 *722:15 0.0239608
5 *722:13 0.10521
6 *722:11 0.110129
7 *722:5 0.0085042
8 *722:5 *797:5 0
9 *722:5 *834:5 0
10 *722:13 *747:5 0
11 *722:13 *761:13 0.0100638
12 *722:13 *762:13 0.0174147
13 *722:17 gpio_vtrip_sel[25] 0
14 *229:13 *722:11 0
15 *370:17 *722:17 0
16 *407:13 *722:11 0.0105974
17 *709:5 *722:13 0
*RES
1 *874:gpio_out[25] *722:5 65.6339 
2 *722:5 *722:11 24.0909 
3 *722:11 *722:13 2159.12 
4 *722:13 *722:15 3.41 
5 *722:15 *722:17 62.181 
6 *722:17 gpio_out[25] 0.849917 
*END

*D_NET *723 0.331264
*CONN
*P gpio_out[26] O
*I *874:gpio_out[26] O *D counter_gpio_config_example
*CAP
1 gpio_out[26] 0.000137408
2 *874:gpio_out[26] 0.0994875
3 *723:9 0.0378651
4 *723:7 0.0377277
5 *723:5 0.0994875
6 *723:5 *724:13 0.0565591
7 *723:5 *766:5 0
8 *723:9 *811:17 0
9 gpio_holdover[26] *723:9 0
10 *195:13 *723:9 0
11 *663:13 *723:9 0
*RES
1 *874:gpio_out[26] *723:5 2033.99 
2 *723:5 *723:7 3.41 
3 *723:7 *723:9 95.0434 
4 *723:9 gpio_out[26] 0.461383 
*END

*D_NET *724 0.471627
*CONN
*P gpio_out[27] O
*I *874:gpio_out[27] O *D counter_gpio_config_example
*CAP
1 gpio_out[27] 0.0010948
2 *874:gpio_out[27] 9.90715e-05
3 *724:17 0.0366989
4 *724:15 0.0356041
5 *724:13 0.145662
6 *724:11 0.145761
7 *724:11 *765:11 0
8 *724:13 *725:13 0
9 *724:13 *736:10 0.0253401
10 *724:13 *765:13 0.0243893
11 *724:17 gpio_vtrip_sel[27] 0
12 gpio_holdover[27] gpio_out[27] 0.000390247
13 gpio_holdover[27] *724:17 0
14 *372:29 *724:17 0
15 *683:11 *724:11 2.81967e-05
16 *723:5 *724:13 0.0565591
*RES
1 *874:gpio_out[27] *724:11 8.17982 
2 *724:11 *724:13 479.447 
3 *724:13 *724:15 3.41 
4 *724:15 *724:17 92.977 
5 *724:17 gpio_out[27] 12.9167 
*END

*D_NET *725 0.463377
*CONN
*P gpio_out[28] O
*I *874:gpio_out[28] O *D counter_gpio_config_example
*CAP
1 gpio_out[28] 0.000254987
2 *874:gpio_out[28] 0.000119391
3 *725:25 0.0207389
4 *725:23 0.0204839
5 *725:21 0.0288435
6 *725:19 0.0454556
7 *725:13 0.0718095
8 *725:11 0.0553168
9 *725:11 *821:7 0
10 *725:13 *736:10 0
11 *725:13 *767:5 0.00674227
12 *725:13 *836:13 0.0317854
13 *725:21 *811:13 0.114919
14 *725:25 gpio_vtrip_sel[28] 0
15 gpio_dm2[28] *725:25 0
16 *670:7 *725:11 0
17 *683:11 *725:11 5.26694e-05
18 *685:13 *725:21 0.0668555
19 *724:13 *725:13 0
*RES
1 *874:gpio_out[28] *725:11 8.25189 
2 *725:11 *725:13 197.347 
3 *725:13 *725:19 49.3503 
4 *725:19 *725:21 1414.77 
5 *725:21 *725:23 3.41 
6 *725:23 *725:25 51.4431 
7 *725:25 gpio_out[28] 0.856183 
*END

*D_NET *726 0.329645
*CONN
*P gpio_out[29] O
*I *874:gpio_out[29] O *D counter_gpio_config_example
*CAP
1 gpio_out[29] 0.000162551
2 *874:gpio_out[29] 6.10124e-05
3 *726:21 0.115492
4 *726:19 0.121632
5 *726:9 0.0167381
6 *726:7 0.0104966
7 *726:9 *731:9 0.0296899
8 *726:19 *730:19 0.000245264
9 *726:19 *731:19 3.06718e-05
10 *726:19 *777:9 0.000241564
11 *726:19 *820:9 0.00931132
12 *726:19 *821:13 0.000118793
13 *726:21 gpio_vtrip_sel[37] 0
14 gpio_analog_pol[32] *726:21 0.000466282
15 gpio_dm0[31] *726:21 0.00075497
16 gpio_dm0[37] *726:21 0.00229199
17 gpio_dm1[37] *726:21 0.00138652
18 gpio_dm2[33] *726:21 0.000723592
19 gpio_holdover[29] gpio_out[29] 0.000161877
20 gpio_holdover[36] *726:21 0
21 gpio_ib_mode_sel[32] *726:21 0.000558298
22 *337:21 *726:21 0.000382976
23 *338:21 *726:21 0
24 *339:35 *726:21 0.00574732
25 *381:21 *726:21 0
26 *425:21 *726:21 0
27 *427:21 *726:21 0
28 *433:16 *726:9 0.000133373
29 *459:21 *726:19 0.0044287
30 *459:23 *726:9 0.00152455
31 *460:21 *726:19 0.00173805
32 *462:19 *726:19 0
33 *469:21 *726:9 0.000103646
34 *553:22 *726:21 0
35 *557:21 *726:21 0.00267083
36 *690:13 *726:9 0.00235243
*RES
1 *874:gpio_out[29] *726:7 5.625 
2 *726:7 *726:9 308.571 
3 *726:9 *726:19 39.0686 
4 *726:19 *726:21 2354.73 
5 *726:21 gpio_out[29] 3.87843 
*END

*D_NET *727 0.570918
*CONN
*P gpio_out[2] O
*I *874:gpio_out[2] O *D counter_gpio_config_example
*CAP
1 gpio_out[2] 0.00168303
2 *874:gpio_out[2] 0.0029219
3 *727:29 0.0997407
4 *727:27 0.0980576
5 *727:25 0.00758077
6 *727:23 0.00758077
7 *727:21 0.00461418
8 *727:19 0.00753609
9 gpio_out[2] *833:13 0
10 *727:19 *760:11 3.99113e-05
11 *727:19 *760:15 0.00293709
12 *727:19 *792:11 9.84683e-05
13 *727:19 *805:11 5.27153e-05
14 *727:19 *815:15 3.47641e-06
15 *727:21 *760:15 0.00546567
16 *727:21 *782:17 0.018236
17 *727:25 *771:13 0.0376624
18 *727:25 *815:17 0.0405639
19 gpio_analog_sel[2] *727:29 0
20 gpio_dm2[2] gpio_out[2] 0.000327625
21 gpio_holdover[2] gpio_out[2] 0.000261763
22 gpio_holdover[2] *727:29 0.000934566
23 *97:11 *727:29 0
24 *109:11 *727:29 0.00373889
25 *160:17 *727:25 0.000889943
26 *169:11 *727:29 0
27 *342:25 gpio_out[2] 0
28 *375:19 *727:29 0.210697
29 *469:23 *727:19 0.000297026
30 *479:15 *727:21 0.0113537
31 *546:13 *727:25 0
32 *567:15 *727:21 0.000939741
33 *567:21 *727:21 0.00122804
34 *683:11 *727:19 0.00242779
35 *690:11 *727:19 0.00143839
36 *690:13 *727:19 0.000772038
37 *692:7 *727:19 6.90348e-06
38 *706:11 *727:19 0.000649309
39 *711:15 *727:19 0.00017962
*RES
1 *874:gpio_out[2] *727:19 25.0204 
2 *727:19 *727:21 200.964 
3 *727:21 *727:23 4.5 
4 *727:23 *727:25 502.08 
5 *727:25 *727:27 3.41 
6 *727:27 *727:29 366.866 
7 *727:29 gpio_out[2] 14.7756 
*END

*D_NET *728 0.319284
*CONN
*P gpio_out[30] O
*I *874:gpio_out[30] O *D counter_gpio_config_example
*CAP
1 gpio_out[30] 0.00981681
2 *874:gpio_out[30] 0.00012564
3 *728:29 0.0431641
4 *728:27 0.0333472
5 *728:25 0.0165921
6 *728:21 0.0589981
7 *728:19 0.046521
8 *728:13 0.040139
9 *728:11 0.0361496
10 *728:11 *874:resetb_l 0
11 *728:11 *729:11 0
12 *728:13 *729:13 0.00566162
13 *728:13 *806:13 0
14 *728:19 *729:13 0.00365994
15 *728:19 *806:13 0
16 *728:21 *729:13 0.00653354
17 *728:21 *806:13 0
18 *728:25 *798:17 0
19 gpio_holdover[30] gpio_out[30] 0.000498978
20 *122:131 *728:19 0.000123163
21 *135:11 *728:29 0
22 *200:17 gpio_out[30] 0
23 *376:17 gpio_out[30] 0.0179009
24 *690:13 *728:11 5.26694e-05
*RES
1 *874:gpio_out[30] *728:11 8.25189 
2 *728:11 *728:13 112.524 
3 *728:13 *728:19 15.8515 
4 *728:19 *728:21 130.246 
5 *728:21 *728:25 47.0213 
6 *728:25 *728:27 3.41 
7 *728:27 *728:29 688.018 
8 *728:29 gpio_out[30] 35.5087 
*END

*D_NET *729 0.33516
*CONN
*P gpio_out[31] O
*I *874:gpio_out[31] O *D counter_gpio_config_example
*CAP
1 gpio_out[31] 0.0020803
2 *874:gpio_out[31] 0.000101314
3 *729:17 0.0312621
4 *729:15 0.0291818
5 *729:13 0.112429
6 *729:11 0.11253
7 *729:13 *753:13 0
8 *729:17 *817:25 0
9 gpio_analog_en[22] *729:13 0.0157587
10 gpio_holdover[31] gpio_out[31] 0.000174006
11 gpio_oeb[31] *729:17 0
12 *462:15 gpio_out[31] 0
13 *675:5 *729:13 0.0157587
14 *685:17 *729:17 0
15 *690:13 *729:11 2.81967e-05
16 *728:11 *729:11 0
17 *728:13 *729:13 0.00566162
18 *728:19 *729:13 0.00365994
19 *728:21 *729:13 0.00653354
*RES
1 *874:gpio_out[31] *729:11 8.17982 
2 *729:11 *729:13 341.06 
3 *729:13 *729:15 3.41 
4 *729:15 *729:17 72.7983 
5 *729:17 gpio_out[31] 28.9594 
*END

*D_NET *730 0.26049
*CONN
*P gpio_out[32] O
*I *874:gpio_out[32] O *D counter_gpio_config_example
*CAP
1 gpio_out[32] 0.00304782
2 *874:gpio_out[32] 0.000147767
3 *730:21 0.0584113
4 *730:19 0.0598966
5 *730:9 0.00941891
6 *730:7 0.00503361
7 gpio_out[32] gpio_vtrip_sel[32] 0
8 *730:7 *820:7 0
9 *730:19 *731:19 9.37046e-05
10 *730:19 *821:13 4.21517e-05
11 gpio_holdover[32] gpio_out[32] 0
12 *459:23 *730:9 0.000525819
13 *459:23 *730:19 0.000650229
14 *469:21 *730:19 0.00337178
15 *469:23 *730:9 0.0245125
16 *552:9 *730:21 0.0694053
17 *567:15 *730:9 0.011488
18 *690:13 *730:9 0.00445753
19 *690:13 *730:19 0.00974197
20 *713:7 *730:7 0
21 *726:19 *730:19 0.000245264
*RES
1 *874:gpio_out[32] *730:7 6.83929 
2 *730:7 *730:9 242.036 
3 *730:9 *730:19 30.2523 
4 *730:19 *730:21 1393.52 
5 *730:21 gpio_out[32] 9.96885 
*END

*D_NET *731 0.288964
*CONN
*P gpio_out[33] O
*I *874:gpio_out[33] O *D counter_gpio_config_example
*CAP
1 gpio_out[33] 0.00278813
2 *874:gpio_out[33] 8.22389e-05
3 *731:21 0.0265024
4 *731:19 0.0262422
5 *731:9 0.00652363
6 *731:7 0.00407797
7 *731:7 *753:11 0
8 *731:19 *777:9 0.0101931
9 *731:21 *734:13 0.021887
10 *731:21 *777:13 0.0283862
11 gpio_analog_sel[33] gpio_out[33] 0
12 gpio_holdover[33] gpio_out[33] 0.00501207
13 *203:17 gpio_out[33] 0
14 *433:16 *731:9 0.000125567
15 *457:11 *731:21 0.002649
16 *459:23 *731:9 0.0296935
17 *470:11 *731:19 0
18 *471:11 *731:19 0
19 *547:9 *731:21 0.01144
20 *548:9 *731:21 0.0704109
21 *690:13 *731:9 0.00303425
22 *690:13 *731:19 0.0101016
23 *726:9 *731:9 0.0296899
24 *726:19 *731:19 3.06718e-05
25 *730:19 *731:19 9.37046e-05
*RES
1 *874:gpio_out[33] *731:7 5.92857 
2 *731:7 *731:9 281.875 
3 *731:9 *731:19 29.737 
4 *731:19 *731:21 1204.7 
5 *731:21 gpio_out[33] 11.7572 
*END

*D_NET *732 0.0643038
*CONN
*P gpio_out[34] O
*I *874:gpio_out[34] O *D counter_gpio_config_example
*CAP
1 gpio_out[34] 0.0164182
2 *874:gpio_out[34] 0.00389658
3 *732:15 0.0177504
4 *732:11 0.00511657
5 *732:5 0.00768101
6 gpio_out[34] gpio_vtrip_sel[34] 0
7 *732:5 *816:5 0
8 *732:15 *816:13 0.00123251
9 *229:13 *732:11 0.00912301
10 *380:17 gpio_out[34] 0
11 *417:15 gpio_out[34] 0.000187038
12 *535:13 gpio_out[34] 0.00149123
13 *562:7 *732:5 0
14 *662:27 *732:15 0.000280954
15 *665:30 *732:15 0.00112634
16 *678:11 *732:11 0
*RES
1 *874:gpio_out[34] *732:5 71.7054 
2 *732:5 *732:11 21.4965 
3 *732:11 *732:15 43.6064 
4 *732:15 gpio_out[34] 39.4557 
*END

*D_NET *733 0.0859069
*CONN
*P gpio_out[35] O
*I *874:gpio_out[35] O *D counter_gpio_config_example
*CAP
1 gpio_out[35] 0.0124936
2 *874:gpio_out[35] 0.00454196
3 *733:13 0.0138504
4 *733:11 0.00589873
5 *733:11 *734:9 0.0169473
6 *733:11 *735:9 0.0171859
7 *733:11 *779:16 0.00213031
8 *733:11 *816:5 0
9 gpio_analog_sel[35] gpio_out[35] 0
10 gpio_holdover[35] gpio_out[35] 0.000240928
11 *180:9 *733:13 0.00235979
12 *194:9 *733:13 0.00621627
13 *244:9 *733:13 0.001337
14 *259:29 *733:11 0.00270473
*RES
1 *874:gpio_out[35] *733:11 37.4947 
2 *733:11 *733:13 76.625 
3 *733:13 gpio_out[35] 30.6379 
*END

*D_NET *734 0.121348
*CONN
*P gpio_out[36] O
*I *874:gpio_out[36] O *D counter_gpio_config_example
*CAP
1 gpio_out[36] 0.00389435
2 *874:gpio_out[36] 0.000141783
3 *734:13 0.00809617
4 *734:11 0.00420182
5 *734:9 0.0110927
6 *734:7 0.0112344
7 *734:9 *735:9 0.002185
8 *734:9 *822:8 0
9 *734:9 *823:6 0
10 *734:13 *777:13 0.0187317
11 gpio_analog_sel[36] gpio_out[36] 0
12 gpio_holdover[36] gpio_out[36] 0.000526052
13 *259:27 *734:9 0.00213262
14 *382:24 gpio_out[36] 3.05874e-05
15 *425:17 *734:9 0.000672359
16 *681:7 *734:7 0
17 *691:9 *734:9 0.0195747
18 *731:21 *734:13 0.021887
19 *733:11 *734:9 0.0169473
*RES
1 *874:gpio_out[36] *734:7 5.90107 
2 *734:7 *734:9 46.8183 
3 *734:9 *734:11 3.41 
4 *734:11 *734:13 269.696 
5 *734:13 gpio_out[36] 12.1669 
*END

*D_NET *735 0.158765
*CONN
*P gpio_out[37] O
*I *874:gpio_out[37] O *D counter_gpio_config_example
*CAP
1 gpio_out[37] 0.00568504
2 *874:gpio_out[37] 0.000236611
3 *735:13 0.0288463
4 *735:11 0.0231612
5 *735:9 0.0119007
6 *735:7 0.0121373
7 *735:9 *779:16 0.00322405
8 *735:9 *787:9 0.00442718
9 *735:9 *804:9 0.000252794
10 gpio_holdover[37] gpio_out[37] 0.0085036
11 *259:27 *735:9 0.00214627
12 *259:29 *735:9 0.000326917
13 *279:9 *735:13 0
14 *393:9 *735:13 0
15 *425:17 *735:9 0.00125382
16 *562:9 *735:9 0.00120741
17 *568:5 *735:7 0
18 *689:9 *735:9 0.0326657
19 *691:9 *735:9 0.00136033
20 *694:9 *735:9 0.00205876
21 *733:11 *735:9 0.0171859
22 *734:9 *735:9 0.002185
*RES
1 *874:gpio_out[37] *735:7 7.11536 
2 *735:7 *735:9 59.1417 
3 *735:9 *735:11 3.41 
4 *735:11 *735:13 465.804 
5 *735:13 gpio_out[37] 20.2556 
*END

*D_NET *736 0.158613
*CONN
*P gpio_out[38] O
*I *874:gpio_out[38] O *D counter_gpio_config_example
*CAP
1 gpio_out[38] 0.00154536
2 *874:gpio_out[38] 5.57753e-05
3 *736:16 0.0120825
4 *736:10 0.0649879
5 *736:8 0.0545065
6 *736:8 *740:16 9.5164e-05
7 *736:10 *784:32 0
8 *736:16 *784:34 0
9 *384:21 gpio_out[38] 0
10 *693:9 *736:16 0
11 *724:13 *736:10 0.0253401
12 *725:13 *736:10 0
*RES
1 *874:gpio_out[38] *736:8 6.9751 
2 *736:8 *736:10 188.291 
3 *736:10 *736:16 34.4325 
4 *736:16 gpio_out[38] 28.9018 
*END

*D_NET *737 0.127292
*CONN
*P gpio_out[39] O
*I *874:gpio_out[39] O *D counter_gpio_config_example
*CAP
1 gpio_out[39] 8.86538e-05
2 *874:gpio_out[39] 0.00389289
3 *737:17 0.00378874
4 *737:15 0.00384687
5 *737:13 0.00217973
6 *737:11 0.00203294
7 *737:9 0.0511831
8 *737:7 0.0511831
9 *737:5 0.00389289
10 *737:5 *794:7 0
11 gpio_holdover[39] *737:17 0
12 *385:13 *737:13 0.00520336
13 *385:13 *737:17 0
14 *697:5 *737:5 0
*RES
1 *874:gpio_out[39] *737:5 72.3125 
2 *737:5 *737:7 3.41 
3 *737:7 *737:9 133.875 
4 *737:9 *737:11 3.41 
5 *737:11 *737:13 64.3214 
6 *737:13 *737:15 3 
7 *737:15 *737:17 73.9286 
8 *737:17 gpio_out[39] 1.86607 
*END

*D_NET *738 0.404519
*CONN
*P gpio_out[3] O
*I *874:gpio_out[3] O *D counter_gpio_config_example
*CAP
1 gpio_out[3] 0.00155033
2 *874:gpio_out[3] 0.00223495
3 *738:25 0.138432
4 *738:23 0.136881
5 *738:21 0.0356215
6 *738:19 0.0356215
7 *738:17 0.0031858
8 *738:15 0.00542074
9 gpio_out[3] *833:13 0
10 *738:15 *765:11 0
11 *738:15 *771:9 0.00819186
12 *738:17 *771:9 0.00164915
13 *738:17 *782:27 0.00421507
14 gpio_analog_sel[3] *738:25 0
15 gpio_dm2[3] *738:25 5.66152e-05
16 gpio_holdover[3] gpio_out[3] 0.000574739
17 gpio_holdover[3] *738:25 0.00548671
18 *874:gpio_in[40] *738:15 6.75178e-05
19 *103:13 *738:21 0
20 *149:13 *738:21 0
21 *187:11 *738:25 0
22 *238:13 *738:21 0.00164795
23 *342:21 *738:17 0
24 *372:13 *738:21 0
25 *470:15 *738:15 0.0081967
26 *479:15 *738:17 0.012649
27 *540:11 *738:25 0.00283576
*RES
1 *874:gpio_out[3] *738:15 30.3588 
2 *738:15 *738:17 120.054 
3 *738:17 *738:19 4.5 
4 *738:19 *738:21 706.08 
5 *738:21 *738:23 3.41 
6 *738:23 *738:25 362.686 
7 *738:25 gpio_out[3] 12.9197 
*END

*D_NET *739 0.268092
*CONN
*P gpio_out[40] O
*I *874:gpio_out[40] O *D counter_gpio_config_example
*CAP
1 gpio_out[40] 0.000319597
2 *874:gpio_out[40] 0.0103781
3 *739:9 0.0304036
4 *739:7 0.030084
5 *739:5 0.0103781
6 gpio_out[40] *827:13 0
7 *739:5 *760:11 0
8 *739:9 *828:13 0.104284
9 *123:21 *739:9 0.0167878
10 *212:13 *739:9 0.0122694
11 *300:21 *739:9 0.0155619
12 *340:17 *739:9 0.0241842
13 *344:35 *739:9 0.0134408
14 *387:13 gpio_out[40] 0
*RES
1 *874:gpio_out[40] *739:5 205.884 
2 *739:5 *739:7 3.41 
3 *739:7 *739:9 167.818 
4 *739:9 gpio_out[40] 9.27607 
*END

*D_NET *740 0.281385
*CONN
*P gpio_out[41] O
*I *874:gpio_out[41] O *D counter_gpio_config_example
*CAP
1 gpio_out[41] 9.45924e-05
2 *874:gpio_out[41] 0.0029621
3 *740:22 0.0562159
4 *740:20 0.0561213
5 *740:18 0.0533337
6 *740:16 0.0562958
7 *740:16 *784:12 9.31015e-05
8 *740:16 *824:8 0.00409945
9 *740:16 *825:8 0.000530544
10 *740:16 *826:12 0.0029757
11 *740:16 *826:14 0.00053983
12 *740:18 *826:14 0.0205072
13 *874:gpio_in[38] *740:18 0.000561129
14 *146:17 *740:18 0
15 *176:13 *740:18 0.0248664
16 *388:25 *740:22 0
17 *410:19 *740:18 0.00144596
18 *703:177 *740:16 0.000647503
19 *705:39 *740:18 0
20 *736:8 *740:16 9.5164e-05
*RES
1 *874:gpio_out[41] *740:16 24.3425 
2 *740:16 *740:18 1109.46 
3 *740:18 *740:20 4.5 
4 *740:20 *740:22 1100.29 
5 *740:22 gpio_out[41] 1.99107 
*END

*D_NET *741 0.227286
*CONN
*P gpio_out[42] O
*I *874:gpio_out[42] O *D counter_gpio_config_example
*CAP
1 gpio_out[42] 0.00110456
2 *874:gpio_out[42] 0.00447162
3 *741:13 0.00720299
4 *741:11 0.00609843
5 *741:9 0.101844
6 *741:7 0.101844
7 *741:5 0.00447162
8 *741:5 *832:7 0
9 gpio_analog_sel[42] gpio_out[42] 0.000247918
10 *213:21 *741:13 0
11 *258:17 *741:9 0
12 *473:11 *741:9 0
*RES
1 *874:gpio_out[42] *741:5 84.4554 
2 *741:5 *741:7 3.41 
3 *741:7 *741:9 272.315 
4 *741:9 *741:11 3.41 
5 *741:11 *741:13 125.196 
6 *741:13 gpio_out[42] 10.4788 
*END

*D_NET *742 0.48063
*CONN
*P gpio_out[43] O
*I *874:gpio_out[43] O *D counter_gpio_config_example
*CAP
1 gpio_out[43] 0.00124732
2 *874:gpio_out[43] 0.000835815
3 *742:13 0.0393141
4 *742:11 0.0380667
5 *742:9 0.0903505
6 *742:7 0.0911863
7 *742:7 *769:5 0
8 *742:9 *743:17 0
9 *742:9 *783:13 0.111885
10 *742:9 *829:16 0.0121623
11 *103:17 *742:9 0.00366986
12 *104:27 *742:9 0.00270951
13 *114:19 *742:9 1.75318e-05
14 *117:17 *742:9 0
15 *190:23 *742:9 0.00732323
16 *214:21 *742:13 0
17 *346:21 *742:13 0
18 *381:17 *742:9 0.0077665
19 *404:19 *742:13 0.0740947
20 *686:5 *742:7 0
*RES
1 *874:gpio_out[43] *742:7 17.4368 
2 *742:7 *742:9 313.105 
3 *742:9 *742:11 3.41 
4 *742:11 *742:13 1110.59 
5 *742:13 gpio_out[43] 14.9506 
*END

*D_NET *743 0.547839
*CONN
*P gpio_out[4] O
*I *874:gpio_out[4] O *D counter_gpio_config_example
*CAP
1 gpio_out[4] 0.00014534
2 *874:gpio_out[4] 0.000100609
3 *743:17 0.147658
4 *743:15 0.147512
5 *743:13 0.061088
6 *743:11 0.0611886
7 *743:13 *806:13 0
8 *743:17 gpio_vtrip_sel[4] 0.00194587
9 *743:17 *781:17 0.0108302
10 *743:17 *783:13 0.00483505
11 *743:17 *829:16 0.00645583
12 gpio_holdover[4] *743:17 0
13 *142:13 *743:17 0
14 *190:29 *743:17 0.00583259
15 *215:33 *743:17 0.000159502
16 *233:21 *743:17 0.00955293
17 *235:17 *743:17 0.0303144
18 *271:21 *743:17 0.0558522
19 *367:25 *743:17 0.000987796
20 *542:21 *743:17 0.00280511
21 *544:17 *743:17 0.00054687
22 *690:13 *743:11 2.81967e-05
23 *718:7 *743:11 0
24 *742:9 *743:17 0
*RES
1 *874:gpio_out[4] *743:11 8.17982 
2 *743:11 *743:13 159.847 
3 *743:13 *743:15 3.41 
4 *743:15 *743:17 418.801 
5 *743:17 gpio_out[4] 0.488017 
*END

*D_NET *744 0.834722
*CONN
*P gpio_out[5] O
*I *874:gpio_out[5] O *D counter_gpio_config_example
*CAP
1 gpio_out[5] 0.00269889
2 *874:gpio_out[5] 0.00119351
3 *744:13 0.0403823
4 *744:11 0.0376834
5 *744:9 0.0505324
6 *744:7 0.0517259
7 *744:7 *831:7 0
8 *744:7 *835:11 0
9 *744:9 *756:9 0.000151193
10 *744:9 *831:9 0.261591
11 *744:9 *833:9 0.264629
12 gpio_dm2[5] gpio_out[5] 0
13 gpio_holdover[5] gpio_out[5] 0.000257964
14 *482:11 *744:13 0.0892176
15 *711:19 *744:9 0.0343064
16 *714:19 *744:9 0.000352467
*RES
1 *874:gpio_out[5] *744:7 23.5082 
2 *744:7 *744:9 419.043 
3 *744:9 *744:11 3.41 
4 *744:11 *744:13 1126.38 
5 *744:13 gpio_out[5] 9.52548 
*END

*D_NET *745 0.485049
*CONN
*P gpio_out[6] O
*I *874:gpio_out[6] O *D counter_gpio_config_example
*CAP
1 gpio_out[6] 0.00291848
2 *874:gpio_out[6] 0.0207332
3 *745:9 0.0987812
4 *745:7 0.0958627
5 *745:5 0.0207332
6 *745:5 *808:5 0
7 *393:13 gpio_out[6] 0.000791918
8 *393:13 *745:9 0.245228
9 *682:5 *745:5 0
*RES
1 *874:gpio_out[6] *745:5 414.134 
2 *745:5 *745:7 3.41 
3 *745:7 *745:9 389.171 
4 *745:9 gpio_out[6] 7.13225 
*END

*D_NET *746 0.433663
*CONN
*P gpio_out[7] O
*I *874:gpio_out[7] O *D counter_gpio_config_example
*CAP
1 gpio_out[7] 0.0108517
2 *874:gpio_out[7] 0.017181
3 *746:13 0.0528089
4 *746:11 0.0419572
5 *746:9 0.135107
6 *746:7 0.135107
7 *746:5 0.017181
8 *746:5 *774:5 0
9 gpio_holdover[7] gpio_out[7] 0
10 *138:13 *746:13 0.0147755
11 *394:17 gpio_out[7] 0
12 *438:13 gpio_out[7] 0
13 *447:9 *746:13 0
14 *467:15 *746:9 0.00869356
*RES
1 *874:gpio_out[7] *746:5 342.491 
2 *746:5 *746:7 3.41 
3 *746:7 *746:9 370.686 
4 *746:9 *746:11 3.41 
5 *746:11 *746:13 865.911 
6 *746:13 gpio_out[7] 29.9548 
*END

*D_NET *747 0.652366
*CONN
*P gpio_out[8] O
*I *874:gpio_out[8] O *D counter_gpio_config_example
*CAP
1 gpio_out[8] 0.00155045
2 *874:gpio_out[8] 0.0687592
3 *747:9 0.105734
4 *747:7 0.104184
5 *747:5 0.0687592
6 *747:5 *769:5 0
7 *747:5 *800:13 0.0216489
8 gpio_dm2[8] gpio_out[8] 5.99199e-06
9 gpio_dm2[8] *747:9 0.00970569
10 gpio_holdover[8] gpio_out[8] 0.000685924
11 *395:13 *747:9 0.270981
12 *542:17 *747:5 0.000351321
13 *694:7 *747:5 0
14 *722:13 *747:5 0
*RES
1 *874:gpio_out[8] *747:5 1406.21 
2 *747:5 *747:7 3.41 
3 *747:7 *747:9 430.141 
4 *747:9 gpio_out[8] 13.5363 
*END

*D_NET *748 0.510839
*CONN
*P gpio_out[9] O
*I *874:gpio_out[9] O *D counter_gpio_config_example
*CAP
1 gpio_out[9] 0.000112974
2 *874:gpio_out[9] 0.0077378
3 *748:17 0.0171159
4 *748:15 0.0170029
5 *748:13 0.0711297
6 *748:11 0.0711297
7 *748:9 0.139909
8 *748:7 0.139909
9 *748:5 0.0077378
10 *748:5 *772:5 0
11 *748:17 *836:17 0
12 gpio_holdover[9] *748:17 0.0390546
13 *292:17 *748:9 0
*RES
1 *874:gpio_out[9] *748:5 145.17 
2 *748:5 *748:7 3.41 
3 *748:7 *748:9 361.173 
4 *748:9 *748:11 3.41 
5 *748:11 *748:13 1464.55 
6 *748:13 *748:15 3.41 
7 *748:15 *748:17 63.1884 
8 *748:17 gpio_out[9] 0.348583 
*END

*D_NET *749 0.43716
*CONN
*P gpio_slow_sel[0] O
*I *874:gpio_slow_sel[0] O *D counter_gpio_config_example
*CAP
1 gpio_slow_sel[0] 2.56413e-05
2 *874:gpio_slow_sel[0] 0.00543141
3 *749:29 0.135924
4 *749:27 0.135898
5 *749:25 0.0324743
6 *749:23 0.0324743
7 *749:21 0.00157563
8 *749:19 0.00700704
9 *749:19 *787:9 0.0151561
10 *749:19 *796:11 0
11 *749:19 *804:9 0.00313629
12 *749:21 *793:11 0.00539653
13 *128:17 *749:25 0.00199903
14 *146:17 *749:21 0.000142732
15 *146:27 *749:19 0.00171342
16 *169:13 *749:25 0.0359327
17 *214:13 *749:25 0.000270373
18 *238:27 *749:19 5.11566e-05
19 *239:13 *749:25 0
20 *240:19 *749:19 0.00315042
21 *243:15 *749:25 0.000729326
22 *281:13 *749:25 0
23 *346:13 *749:25 0.00398703
24 *357:21 *749:25 0
25 *419:15 *749:25 0.00254282
26 *425:17 *749:19 0.00457166
27 *441:7 *749:29 0
28 *562:9 *749:19 0.00320551
29 *661:15 *749:19 0.000150235
30 *674:13 *749:25 0
31 *703:177 *749:19 0.000146824
32 *705:35 *749:19 0.00149102
33 *705:39 *749:21 0.00257679
*RES
1 *874:gpio_slow_sel[0] *749:19 45.5951 
2 *749:19 *749:21 52.2857 
3 *749:21 *749:23 4.5 
4 *749:23 *749:25 833.277 
5 *749:25 *749:27 3.41 
6 *749:27 *749:29 362.625 
7 *749:29 gpio_slow_sel[0] 0.0791167 
*END

*D_NET *750 0.53473
*CONN
*P gpio_slow_sel[10] O
*I *874:gpio_slow_sel[10] O *D counter_gpio_config_example
*CAP
1 gpio_slow_sel[10] 0.000157938
2 *874:gpio_slow_sel[10] 0.00309973
3 *750:17 0.153041
4 *750:15 0.152883
5 *750:13 0.0614094
6 *750:11 0.0645092
7 *750:11 *751:11 0
8 *750:11 *797:5 0
9 *750:13 *795:5 0.0538382
10 *750:13 *802:5 0
11 *750:13 *805:21 0.0445765
12 *266:21 *750:17 0
13 *360:13 *750:11 0.000373251
14 *543:17 *750:11 0.000841629
*RES
1 *874:gpio_slow_sel[10] *750:11 42.2178 
2 *750:11 *750:13 1738.38 
3 *750:13 *750:15 3.41 
4 *750:15 *750:17 413.432 
5 *750:17 gpio_slow_sel[10] 0.530317 
*END

*D_NET *751 0.536228
*CONN
*P gpio_slow_sel[11] O
*I *874:gpio_slow_sel[11] O *D counter_gpio_config_example
*CAP
1 gpio_slow_sel[11] 5.90225e-05
2 *874:gpio_slow_sel[11] 0.00250267
3 *751:17 0.153258
4 *751:15 0.153199
5 *751:13 0.06626
6 *751:11 0.0687626
7 *751:13 *775:5 0
8 *751:13 *792:13 0.00726027
9 *290:17 *751:11 0.000212097
10 *553:18 *751:11 0.000324528
11 *677:5 *751:11 0
12 *719:5 *751:13 0.0843893
13 *750:11 *751:11 0
*RES
1 *874:gpio_slow_sel[11] *751:11 34.4888 
2 *751:11 *751:13 1947.23 
3 *751:13 *751:15 3.41 
4 *751:15 *751:17 415.594 
5 *751:17 gpio_slow_sel[11] 0.198183 
*END

*D_NET *752 0.519829
*CONN
*P gpio_slow_sel[12] O
*I *874:gpio_slow_sel[12] O *D counter_gpio_config_example
*CAP
1 gpio_slow_sel[12] 0.00026733
2 *874:gpio_slow_sel[12] 0.0168045
3 *752:17 0.024969
4 *752:15 0.0247017
5 *752:13 0.0893827
6 *752:11 0.0893827
7 *752:9 0.124963
8 *752:7 0.124963
9 *752:5 0.0168045
10 *752:5 *818:5 0
11 *444:7 *752:17 0
12 *555:17 *752:9 0.00759167
13 *699:7 *752:5 0
*RES
1 *874:gpio_slow_sel[12] *752:5 329.741 
2 *752:5 *752:7 3.41 
3 *752:7 *752:9 346.471 
4 *752:9 *752:11 3.41 
5 *752:11 *752:13 1839.77 
6 *752:13 *752:15 3.41 
7 *752:15 *752:17 64.2694 
8 *752:17 gpio_slow_sel[12] 0.82485 
*END

*D_NET *753 0.709017
*CONN
*P gpio_slow_sel[13] O
*I *874:gpio_slow_sel[13] O *D counter_gpio_config_example
*CAP
1 gpio_slow_sel[13] 0.00012516
2 *874:gpio_slow_sel[13] 0.000198063
3 *753:25 0.0220872
4 *753:23 0.021962
5 *753:21 0.0976438
6 *753:19 0.0976438
7 *753:17 0.135347
8 *753:15 0.135347
9 *753:13 0.0972106
10 *753:11 0.0974086
11 *753:17 *754:17 0
12 gpio_dm0[22] *753:13 0.00383475
13 *269:17 *753:25 0
14 *445:5 *753:25 0
15 *445:7 *753:25 0
16 *678:5 *753:13 0.00013668
17 *690:13 *753:11 7.19068e-05
18 *695:10 *753:13 0
19 *697:5 *753:11 0
20 *729:13 *753:13 0
21 *731:7 *753:11 0
*RES
1 *874:gpio_slow_sel[13] *753:11 8.32395 
2 *753:11 *753:13 254.662 
3 *753:13 *753:15 3.41 
4 *753:15 *753:17 366.542 
5 *753:17 *753:19 3.41 
6 *753:19 *753:21 2012.2 
7 *753:21 *753:23 3.41 
8 *753:23 *753:25 55.6214 
9 *753:25 gpio_slow_sel[13] 0.386183 
*END

*D_NET *754 0.734509
*CONN
*P gpio_slow_sel[14] O
*I *874:gpio_slow_sel[14] O *D counter_gpio_config_example
*CAP
1 gpio_slow_sel[14] 1.6097e-05
2 *874:gpio_slow_sel[14] 9.55114e-05
3 *754:25 0.103351
4 *754:23 0.103335
5 *754:21 0.117272
6 *754:19 0.117272
7 *754:17 0.0469581
8 *754:15 0.0469581
9 *754:13 0.0654732
10 *754:11 0.0655687
11 *754:11 *801:11 0
12 *754:11 *810:11 0
13 *754:13 *791:13 0.00771292
14 *754:13 *801:13 0.0127261
15 *754:13 *810:13 0.0408495
16 *270:17 *754:25 0
17 *466:7 *754:17 0.000726467
18 *676:5 *754:13 0.00616628
19 *683:11 *754:11 2.81967e-05
20 *753:17 *754:17 0
*RES
1 *874:gpio_slow_sel[14] *754:11 8.17982 
2 *754:11 *754:13 253.596 
3 *754:13 *754:15 3.41 
4 *754:15 *754:17 125.623 
5 *754:17 *754:19 3.41 
6 *754:19 *754:21 2418.38 
7 *754:21 *754:23 3.41 
8 *754:23 *754:25 281.55 
9 *754:25 gpio_slow_sel[14] 0.05405 
*END

*D_NET *755 0.784118
*CONN
*P gpio_slow_sel[15] O
*I *874:gpio_slow_sel[15] O *D counter_gpio_config_example
*CAP
1 gpio_slow_sel[15] 7.61682e-05
2 *874:gpio_slow_sel[15] 0.000115629
3 *755:21 0.0107009
4 *755:19 0.0106248
5 *755:17 0.145924
6 *755:15 0.145924
7 *755:13 0.189608
8 *755:11 0.189724
9 *755:11 *807:11 0
10 *755:11 *817:11 0
11 *755:13 *807:13 0.0343671
12 *755:13 *817:13 0.0169625
13 *755:13 *817:19 0.00547598
14 *755:13 *817:21 0.0345863
15 *690:13 *755:11 2.81967e-05
*RES
1 *874:gpio_slow_sel[15] *755:11 8.17982 
2 *755:11 *755:13 673.018 
3 *755:13 *755:15 3.41 
4 *755:15 *755:17 398.972 
5 *755:17 *755:19 3.41 
6 *755:19 *755:21 210.196 
7 *755:21 gpio_slow_sel[15] 1.60714 
*END

*D_NET *756 0.850958
*CONN
*P gpio_slow_sel[16] O
*I *874:gpio_slow_sel[16] O *D counter_gpio_config_example
*CAP
1 gpio_slow_sel[16] 0.197944
2 *874:gpio_slow_sel[16] 0.00122884
3 *756:11 0.197944
4 *756:9 0.0482474
5 *756:7 0.0494762
6 *756:7 *777:7 0
7 *756:9 *831:9 0.199658
8 *756:9 *833:9 0.000247396
9 *389:13 *756:9 0.054012
10 *711:19 *756:9 0.03247
11 *714:19 *756:9 0.000274826
12 *715:9 *756:9 0.069304
13 *744:9 *756:9 0.000151193
*RES
1 *874:gpio_slow_sel[16] *756:7 24.7225 
2 *756:7 *756:9 317.717 
3 *756:9 *756:11 3.41 
4 *756:11 gpio_slow_sel[16] 4066.71 
*END

*D_NET *757 0.5745
*CONN
*P gpio_slow_sel[17] O
*I *874:gpio_slow_sel[17] O *D counter_gpio_config_example
*CAP
1 gpio_slow_sel[17] 0.0144694
2 *874:gpio_slow_sel[17] 0.139922
3 *757:11 0.0144694
4 *757:9 0.0948795
5 *757:7 0.0948795
6 *757:5 0.139922
7 *757:5 *810:13 0.0358789
8 *757:9 *758:9 0
9 *673:13 *757:5 0.04008
10 *676:5 *757:5 0
11 *687:13 *757:5 0
12 *705:35 *757:5 0
*RES
1 *874:gpio_slow_sel[17] *757:5 2868.21 
2 *757:5 *757:7 3.41 
3 *757:7 *757:9 259.271 
4 *757:9 *757:11 3.41 
5 *757:11 gpio_slow_sel[17] 285.42 
*END

*D_NET *758 0.469063
*CONN
*P gpio_slow_sel[18] O
*I *874:gpio_slow_sel[18] O *D counter_gpio_config_example
*CAP
1 gpio_slow_sel[18] 0.0142321
2 *874:gpio_slow_sel[18] 0.139488
3 *758:11 0.0142321
4 *758:9 0.0808111
5 *758:7 0.0808111
6 *758:5 0.139488
7 *758:5 *773:13 0
8 *758:5 *781:15 0
9 *679:5 *758:5 0
10 *757:9 *758:9 0
*RES
1 *874:gpio_slow_sel[18] *758:5 2862.13 
2 *758:5 *758:7 3.41 
3 *758:7 *758:9 219.85 
4 *758:9 *758:11 3.41 
5 *758:11 gpio_slow_sel[18] 291.491 
*END

*D_NET *759 0.398962
*CONN
*P gpio_slow_sel[19] O
*I *874:gpio_slow_sel[19] O *D counter_gpio_config_example
*CAP
1 gpio_slow_sel[19] 0.00923789
2 *874:gpio_slow_sel[19] 0.150464
3 *759:11 0.00923789
4 *759:9 0.0397792
5 *759:7 0.0397792
6 *759:5 0.150464
7 *270:17 *759:9 0
8 *680:5 *759:5 0
*RES
1 *874:gpio_slow_sel[19] *759:5 2972.63 
2 *759:5 *759:7 3.41 
3 *759:7 *759:9 107.787 
4 *759:9 *759:11 3.41 
5 *759:11 gpio_slow_sel[19] 180.991 
*END

*D_NET *760 0.392859
*CONN
*P gpio_slow_sel[1] O
*I *874:gpio_slow_sel[1] O *D counter_gpio_config_example
*CAP
1 gpio_slow_sel[1] 0.000225125
2 *874:gpio_slow_sel[1] 0.000988639
3 *760:21 0.136055
4 *760:19 0.135829
5 *760:17 0.004186
6 *760:15 0.0107977
7 *760:11 0.00760032
8 *760:11 *782:15 0.00262076
9 *760:15 *771:9 0.0245934
10 *760:15 *782:15 8.31093e-05
11 *760:15 *782:17 0.00432888
12 *760:15 *815:15 0.0216978
13 *874:gpio_in[2] *760:15 4.47593e-05
14 *343:13 *760:17 0.0212534
15 *452:7 *760:21 0
16 *452:11 *760:17 0.0114811
17 *683:11 *760:15 0.000118728
18 *690:11 *760:11 0.00251261
19 *727:19 *760:11 3.99113e-05
20 *727:19 *760:15 0.00293709
21 *727:21 *760:15 0.00546567
22 *739:5 *760:11 0
*RES
1 *874:gpio_slow_sel[1] *760:11 12.1389 
2 *760:11 *760:15 43.5621 
3 *760:15 *760:17 261.804 
4 *760:17 *760:19 3.41 
5 *760:19 *760:21 369.904 
6 *760:21 gpio_slow_sel[1] 0.755917 
*END

*D_NET *761 0.524908
*CONN
*P gpio_slow_sel[20] O
*I *874:gpio_slow_sel[20] O *D counter_gpio_config_example
*CAP
1 gpio_slow_sel[20] 8.37064e-05
2 *874:gpio_slow_sel[20] 0.000148021
3 *761:21 0.119945
4 *761:19 0.119861
5 *761:17 0.0379019
6 *761:15 0.0379019
7 *761:13 0.0701621
8 *761:11 0.0703101
9 *761:11 *762:11 0
10 *761:11 *800:11 0
11 *761:13 *762:13 0.0138977
12 *761:13 *800:13 0.0445806
13 *442:11 *761:21 0
14 *690:13 *761:11 5.26694e-05
15 *722:13 *761:13 0.0100638
*RES
1 *874:gpio_slow_sel[20] *761:11 8.25189 
2 *761:11 *761:13 276.288 
3 *761:13 *761:15 3.41 
4 *761:15 *761:17 95.4993 
5 *761:17 *761:19 3.41 
6 *761:19 *761:21 2471.2 
7 *761:21 gpio_slow_sel[20] 1.60714 
*END

*D_NET *762 0.643883
*CONN
*P gpio_slow_sel[21] O
*I *874:gpio_slow_sel[21] O *D counter_gpio_config_example
*CAP
1 gpio_slow_sel[21] 8.42969e-05
2 *874:gpio_slow_sel[21] 0.000114899
3 *762:21 0.00520564
4 *762:19 0.00512134
5 *762:17 0.0205306
6 *762:15 0.0205306
7 *762:13 0.23897
8 *762:11 0.239085
9 *762:13 *800:13 0
10 *122:131 *762:13 0.000802227
11 *368:61 *762:17 0
12 *690:13 *762:11 2.81967e-05
13 *709:5 *762:13 0.0820983
14 *722:13 *762:13 0.0174147
15 *761:11 *762:11 0
16 *761:13 *762:13 0.0138977
*RES
1 *874:gpio_slow_sel[21] *762:11 8.17982 
2 *762:11 *762:13 692.407 
3 *762:13 *762:15 3.41 
4 *762:15 *762:17 55.8626 
5 *762:17 *762:19 3.41 
6 *762:19 *762:21 99.6964 
7 *762:21 gpio_slow_sel[21] 1.60714 
*END

*D_NET *763 0.330325
*CONN
*P gpio_slow_sel[22] O
*I *874:gpio_slow_sel[22] O *D counter_gpio_config_example
*CAP
1 gpio_slow_sel[22] 0.146617
2 *874:gpio_slow_sel[22] 0.00582426
3 *763:11 0.151164
4 *763:5 0.010371
5 *763:5 *770:5 0
6 *763:5 *781:15 0
7 *763:11 *803:9 0.00743044
8 *763:11 *814:19 0.00196919
9 *535:13 *763:11 0
10 *677:5 gpio_slow_sel[22] 0.00694789
11 *709:5 *763:5 0
*RES
1 *874:gpio_slow_sel[22] *763:5 108.741 
2 *763:5 *763:11 22.9379 
3 *763:11 gpio_slow_sel[22] 3044.88 
*END

*D_NET *764 0.329688
*CONN
*P gpio_slow_sel[23] O
*I *874:gpio_slow_sel[23] O *D counter_gpio_config_example
*CAP
1 gpio_slow_sel[23] 0.0021972
2 *874:gpio_slow_sel[23] 0.0692663
3 *764:13 0.0846899
4 *764:11 0.0933803
5 *764:5 0.0801539
6 *439:13 *764:11 0
7 *684:5 *764:5 0
8 *716:17 *764:5 0
*RES
1 *874:gpio_slow_sel[23] *764:5 1414.1 
2 *764:5 *764:11 36.1261 
3 *764:11 *764:13 1697.75 
4 *764:13 gpio_slow_sel[23] 42.9732 
*END

*D_NET *765 0.614888
*CONN
*P gpio_slow_sel[24] O
*I *874:gpio_slow_sel[24] O *D counter_gpio_config_example
*CAP
1 gpio_slow_sel[24] 0.00376947
2 *874:gpio_slow_sel[24] 0.000119391
3 *765:21 0.0407581
4 *765:19 0.0369886
5 *765:17 0.0330766
6 *765:15 0.0330766
7 *765:13 0.142592
8 *765:11 0.142711
9 *765:13 *766:5 0.0357874
10 *765:13 *784:12 0.00893682
11 *765:13 *784:14 0.030637
12 *765:13 *784:24 0.014601
13 *765:13 *784:28 0.00538343
14 *281:25 gpio_slow_sel[24] 0
15 *457:9 gpio_slow_sel[24] 0
16 *457:11 *765:21 0.0442822
17 *466:11 *765:13 0.00572429
18 *547:9 *765:21 0.0120021
19 *683:11 *765:11 5.26694e-05
20 *719:11 *765:17 0
21 *724:11 *765:11 0
22 *724:13 *765:13 0.0243893
23 *738:15 *765:11 0
*RES
1 *874:gpio_slow_sel[24] *765:11 8.25189 
2 *765:11 *765:13 490.313 
3 *765:13 *765:15 3.41 
4 *765:15 *765:17 87.4278 
5 *765:17 *765:19 3.41 
6 *765:19 *765:21 1125.77 
7 *765:21 gpio_slow_sel[24] 12.0212 
*END

*D_NET *766 0.336762
*CONN
*P gpio_slow_sel[25] O
*I *874:gpio_slow_sel[25] O *D counter_gpio_config_example
*CAP
1 gpio_slow_sel[25] 0.00267558
2 *874:gpio_slow_sel[25] 0.104053
3 *766:9 0.0364084
4 *766:7 0.0337328
5 *766:5 0.104053
6 *282:33 *766:9 0
7 *458:9 gpio_slow_sel[25] 0
8 *466:11 *766:5 0.0200517
9 *723:5 *766:5 0
10 *765:13 *766:5 0.0357874
*RES
1 *874:gpio_slow_sel[25] *766:5 2267.74 
2 *766:5 *766:7 3.41 
3 *766:7 *766:9 90.1664 
4 *766:9 gpio_slow_sel[25] 5.96822 
*END

*D_NET *767 0.319209
*CONN
*P gpio_slow_sel[26] O
*I *874:gpio_slow_sel[26] O *D counter_gpio_config_example
*CAP
1 gpio_slow_sel[26] 3.10276e-05
2 *874:gpio_slow_sel[26] 0.0770475
3 *767:17 0.0333859
4 *767:15 0.0333549
5 *767:13 0.0245495
6 *767:11 0.0272678
7 *767:5 0.0797658
8 *767:5 *836:13 0.0294833
9 *459:9 *767:17 0
10 *672:11 *767:5 0
11 *706:13 *767:13 0.00758098
12 *725:13 *767:5 0.00674227
*RES
1 *874:gpio_slow_sel[26] *767:5 1574.38 
2 *767:5 *767:11 13.8575 
3 *767:11 *767:13 502.839 
4 *767:13 *767:15 3.41 
5 *767:15 *767:17 87.044 
6 *767:17 gpio_slow_sel[26] 0.104183 
*END

*D_NET *768 0.27902
*CONN
*P gpio_slow_sel[27] O
*I *874:gpio_slow_sel[27] O *D counter_gpio_config_example
*CAP
1 gpio_slow_sel[27] 0.00384075
2 *874:gpio_slow_sel[27] 0.0877823
3 *768:13 0.00664749
4 *768:11 0.00280674
5 *768:9 0.0235195
6 *768:7 0.0235195
7 *768:5 0.0877823
8 *768:5 *791:5 0
9 *768:5 *807:13 0.0369817
10 gpio_holdover[22] *768:5 0
11 *178:21 *768:9 0
12 *547:9 *768:13 0.00111464
13 *548:9 *768:13 0.00502526
14 *685:5 *768:5 0
*RES
1 *874:gpio_slow_sel[27] *768:5 1795.99 
2 *768:5 *768:7 3.41 
3 *768:7 *768:9 61.5199 
4 *768:9 *768:11 3.41 
5 *768:11 *768:13 86.9464 
6 *768:13 gpio_slow_sel[27] 12.1121 
*END

*D_NET *769 0.240451
*CONN
*P gpio_slow_sel[28] O
*I *874:gpio_slow_sel[28] O *D counter_gpio_config_example
*CAP
1 gpio_slow_sel[28] 0.00271276
2 *874:gpio_slow_sel[28] 0.0826319
3 *769:9 0.0249963
4 *769:7 0.0222835
5 *769:5 0.0826319
6 *769:5 *798:13 0.00932938
7 *769:5 *800:13 0.0158656
8 *461:9 gpio_slow_sel[28] 0
9 *461:9 *769:9 0
10 *542:17 *769:5 0
11 *742:7 *769:5 0
12 *747:5 *769:5 0
*RES
1 *874:gpio_slow_sel[28] *769:5 1689.13 
2 *769:5 *769:7 3.41 
3 *769:7 *769:9 57.8805 
4 *769:9 gpio_slow_sel[28] 5.97448 
*END

*D_NET *770 0.238002
*CONN
*P gpio_slow_sel[29] O
*I *874:gpio_slow_sel[29] O *D counter_gpio_config_example
*CAP
1 gpio_slow_sel[29] 6.46215e-05
2 *874:gpio_slow_sel[29] 0.00287866
3 *770:17 0.0209314
4 *770:15 0.0208668
5 *770:13 0.070347
6 *770:11 0.0729901
7 *770:5 0.00552172
8 *770:5 *781:15 0.000245213
9 *770:5 *783:11 0
10 *233:19 *770:5 9.81333e-05
11 *406:13 *770:11 0.00659564
12 *537:13 *770:11 0
13 *545:26 *770:13 0.0374632
14 *763:5 *770:5 0
*RES
1 *874:gpio_slow_sel[29] *770:5 54.0982 
2 *770:5 *770:11 17.3167 
3 *770:11 *770:13 1443.91 
4 *770:13 *770:15 3.41 
5 *770:15 *770:17 50.29 
6 *770:17 gpio_slow_sel[29] 0.216983 
*END

*D_NET *771 0.432617
*CONN
*P gpio_slow_sel[2] O
*I *874:gpio_slow_sel[2] O *D counter_gpio_config_example
*CAP
1 gpio_slow_sel[2] 0.000102819
2 *874:gpio_slow_sel[2] 0.00711191
3 *771:21 0.138732
4 *771:19 0.141311
5 *771:13 0.0115289
6 *771:11 0.00884724
7 *771:9 0.00711191
8 *771:9 *782:15 0.000161768
9 *874:gpio_in[2] *771:9 0.00706176
10 *874:gpio_in[3] *771:9 0.000728462
11 *160:17 *771:13 0.000411322
12 *287:17 *771:21 0
13 *343:13 *771:13 0.0268708
14 *345:9 *771:21 0
15 *355:9 *771:19 0
16 *355:9 *771:21 0
17 *370:11 *771:19 6.96553e-05
18 *400:11 *771:19 0
19 *400:11 *771:21 0.00135845
20 *470:15 *771:9 0.00367483
21 *479:15 *771:9 0.0017748
22 *533:11 *771:19 0.00324527
23 *546:13 *771:13 0
24 *549:13 *771:13 0
25 *670:9 *771:9 0.000416442
26 *683:7 *771:9 0
27 *690:11 *771:9 0
28 *727:25 *771:13 0.0376624
29 *738:15 *771:9 0.00819186
30 *738:17 *771:9 0.00164915
31 *760:15 *771:9 0.0245934
*RES
1 *874:gpio_slow_sel[2] *771:9 47.4062 
2 *771:9 *771:11 3.41 
3 *771:11 *771:13 466.411 
4 *771:13 *771:19 11.5739 
5 *771:19 *771:21 362.085 
6 *771:21 gpio_slow_sel[2] 0.31725 
*END

*D_NET *772 0.208626
*CONN
*P gpio_slow_sel[30] O
*I *874:gpio_slow_sel[30] O *D counter_gpio_config_example
*CAP
1 gpio_slow_sel[30] 0.00298858
2 *874:gpio_slow_sel[30] 0.00330295
3 *772:17 0.0261143
4 *772:15 0.0231257
5 *772:13 0.0530483
6 *772:11 0.0554216
7 *772:5 0.00567625
8 *772:5 *811:5 0
9 *772:13 *814:13 0.000143652
10 gpio_dm1[30] *772:17 0
11 *407:13 *772:11 0
12 *537:13 *772:11 0.00491652
13 *686:5 *772:13 0.0338879
14 *748:5 *772:5 0
*RES
1 *874:gpio_slow_sel[30] *772:5 59.5625 
2 *772:5 *772:11 14.8664 
3 *772:11 *772:13 1241.12 
4 *772:13 *772:15 3.41 
5 *772:15 *772:17 58.9615 
6 *772:17 gpio_slow_sel[30] 6.47582 
*END

*D_NET *773 0.180446
*CONN
*P gpio_slow_sel[31] O
*I *874:gpio_slow_sel[31] O *D counter_gpio_config_example
*CAP
1 gpio_slow_sel[31] 0.00279564
2 *874:gpio_slow_sel[31] 0.00636771
3 *773:17 0.0243838
4 *773:15 0.0215882
5 *773:13 0.032987
6 *773:11 0.0363752
7 *773:5 0.00975589
8 gpio_dm1[31] *773:17 0
9 gpio_ib_mode_sel[22] *773:5 0
10 *139:13 *773:11 0
11 *380:17 *773:11 0.00148108
12 *465:7 gpio_slow_sel[31] 0
13 *465:7 *773:17 0
14 *679:5 *773:13 0.0447114
15 *708:5 *773:5 0
16 *758:5 *773:13 0
*RES
1 *874:gpio_slow_sel[31] *773:5 120.277 
2 *773:5 *773:11 16.8122 
3 *773:11 *773:13 989.768 
4 *773:13 *773:15 3.41 
5 *773:15 *773:17 52.4755 
6 *773:17 gpio_slow_sel[31] 6.08728 
*END

*D_NET *774 0.133696
*CONN
*P gpio_slow_sel[32] O
*I *874:gpio_slow_sel[32] O *D counter_gpio_config_example
*CAP
1 gpio_slow_sel[32] 4.78246e-05
2 *874:gpio_slow_sel[32] 0.0270376
3 *774:9 0.0398105
4 *774:7 0.0397626
5 *774:5 0.0270376
6 *774:5 *796:13 0
7 *466:7 *774:9 0
8 *682:5 *774:5 0
9 *746:5 *774:5 0
*RES
1 *874:gpio_slow_sel[32] *774:5 542.848 
2 *774:5 *774:7 3.41 
3 *774:7 *774:9 99.5836 
4 *774:9 gpio_slow_sel[32] 0.160583 
*END

*D_NET *775 0.104026
*CONN
*P gpio_slow_sel[33] O
*I *874:gpio_slow_sel[33] O *D counter_gpio_config_example
*CAP
1 gpio_slow_sel[33] 0.00865346
2 *874:gpio_slow_sel[33] 0.0168079
3 *775:9 0.0328667
4 *775:7 0.0242133
5 *775:5 0.0168079
6 *775:5 *792:13 0.00203206
7 *775:5 *809:13 0
8 gpio_analog_en[33] *775:9 0.000822607
9 gpio_dm0[33] *775:9 0.000180251
10 gpio_dm1[33] gpio_slow_sel[33] 0
11 *272:9 gpio_slow_sel[33] 0.000848036
12 *467:15 gpio_slow_sel[33] 0.000793589
13 *719:5 *775:5 0
14 *751:13 *775:5 0
*RES
1 *874:gpio_slow_sel[33] *775:5 335.812 
2 *775:5 *775:7 3.41 
3 *775:7 *775:9 62.5288 
4 *775:9 gpio_slow_sel[33] 36.6343 
*END

*D_NET *776 0.0658782
*CONN
*P gpio_slow_sel[34] O
*I *874:gpio_slow_sel[34] O *D counter_gpio_config_example
*CAP
1 gpio_slow_sel[34] 0.00279873
2 *874:gpio_slow_sel[34] 0.0068845
3 *776:9 0.0236618
4 *776:7 0.020863
5 *776:5 0.0068845
6 *776:5 *789:5 0
7 *292:17 *776:9 0
8 *468:7 gpio_slow_sel[34] 0
9 *468:7 *776:9 0
10 *468:15 *776:9 6.20381e-05
11 *667:5 *776:5 0
12 *721:13 *776:5 0.00472369
*RES
1 *874:gpio_slow_sel[34] *776:5 154.884 
2 *776:5 *776:7 3.41 
3 *776:7 *776:9 51.3224 
4 *776:9 gpio_slow_sel[34] 6.03088 
*END

*D_NET *777 0.202683
*CONN
*P gpio_slow_sel[35] O
*I *874:gpio_slow_sel[35] O *D counter_gpio_config_example
*CAP
1 gpio_slow_sel[35] 0.0041014
2 *874:gpio_slow_sel[35] 0.00022594
3 *777:13 0.0227777
4 *777:11 0.0186763
5 *777:9 0.0101858
6 *777:7 0.0104118
7 *777:7 *807:11 0
8 *777:9 *820:9 0.0359458
9 *458:11 *777:13 0
10 *470:15 *777:9 0.000517579
11 *662:25 *777:9 0.000644933
12 *690:13 *777:9 0.0140728
13 *690:17 *777:13 0.0275699
14 *726:19 *777:9 0.000241564
15 *731:19 *777:9 0.0101931
16 *731:21 *777:13 0.0283862
17 *734:13 *777:13 0.0187317
18 *756:7 *777:7 0
*RES
1 *874:gpio_slow_sel[35] *777:7 7.11536 
2 *777:7 *777:9 61.3757 
3 *777:9 *777:11 3.41 
4 *777:11 *777:13 859.232 
5 *777:13 gpio_slow_sel[35] 12.1747 
*END

*D_NET *778 0.172162
*CONN
*P gpio_slow_sel[36] O
*I *874:gpio_slow_sel[36] O *D counter_gpio_config_example
*CAP
1 gpio_slow_sel[36] 0.0123078
2 *874:gpio_slow_sel[36] 0.00489786
3 *778:13 0.031719
4 *778:11 0.0243091
5 *778:11 *786:7 0
6 *778:11 *820:9 0.0202039
7 gpio_dm1[36] gpio_slow_sel[36] 0.000666422
8 *93:9 *778:13 0.00062988
9 *99:9 *778:13 0
10 *105:9 *778:13 0.00480456
11 *122:17 *778:13 0.02291
12 *125:9 *778:13 0
13 *133:9 *778:13 0.00173904
14 *194:9 *778:13 0.00444252
15 *244:9 *778:13 0.00319495
16 *369:9 *778:13 0.0175223
17 *424:35 gpio_slow_sel[36] 4.7224e-05
18 *426:9 *778:13 0.00255868
19 *431:9 *778:13 0
20 *469:21 *778:13 0
21 *470:15 *778:11 0.0202089
22 *693:5 *778:11 0
*RES
1 *874:gpio_slow_sel[36] *778:11 44.3608 
2 *778:11 *778:13 663.732 
3 *778:13 gpio_slow_sel[36] 31.1063 
*END

*D_NET *779 0.234456
*CONN
*P gpio_slow_sel[37] O
*I *874:gpio_slow_sel[37] O *D counter_gpio_config_example
*CAP
1 gpio_slow_sel[37] 0.00798481
2 *874:gpio_slow_sel[37] 0.04282
3 *779:18 0.0205254
4 *779:16 0.0553606
5 *779:16 *787:9 0.000622286
6 *779:16 *824:8 0.000352657
7 *779:16 *829:16 0.00297646
8 *91:9 *779:18 0.0302937
9 *91:17 *779:18 0.000839888
10 *105:17 *779:18 0.00213297
11 *115:9 *779:18 0.0178722
12 *123:9 *779:18 0.000791081
13 *157:7 gpio_slow_sel[37] 0
14 *189:9 *779:18 0.00616868
15 *215:33 *779:16 0.0090767
16 *283:9 *779:18 0.000946973
17 *402:9 *779:18 0.00567589
18 *425:17 *779:16 0.0043802
19 *440:7 gpio_slow_sel[37] 0.000724114
20 *471:9 gpio_slow_sel[37] 0.0154482
21 *661:15 *779:16 0.000278311
22 *689:9 *779:16 0.00336321
23 *705:35 *779:16 0.00046754
24 *733:11 *779:16 0.00213031
25 *735:9 *779:16 0.00322405
*RES
1 *874:gpio_slow_sel[37] *779:16 17.33 
2 *779:16 *779:18 74.3007 
3 *779:18 gpio_slow_sel[37] 29.4989 
*END

*D_NET *780 0.0534243
*CONN
*P gpio_slow_sel[38] O
*I *874:gpio_slow_sel[38] O *D counter_gpio_config_example
*CAP
1 gpio_slow_sel[38] 0.00215827
2 *874:gpio_slow_sel[38] 0.0106209
3 *780:5 0.0127792
4 *212:13 gpio_slow_sel[38] 0.013933
5 *296:13 gpio_slow_sel[38] 0.013933
6 *472:7 gpio_slow_sel[38] 0
7 *670:7 *780:5 0
8 *702:7 *780:5 0
*RES
1 *874:gpio_slow_sel[38] *780:5 208.312 
2 *780:5 gpio_slow_sel[38] 32.5878 
*END

*D_NET *781 0.308598
*CONN
*P gpio_slow_sel[39] O
*I *874:gpio_slow_sel[39] O *D counter_gpio_config_example
*CAP
1 gpio_slow_sel[39] 6.91415e-05
2 *874:gpio_slow_sel[39] 0.00204796
3 *781:21 0.0554426
4 *781:19 0.0553734
5 *781:17 0.0227636
6 *781:15 0.0248115
7 *781:17 *783:13 0.0870792
8 *781:17 *829:16 0.0013857
9 *104:27 *781:17 0.0028722
10 *142:13 *781:15 0
11 *271:21 *781:15 0.000120342
12 *323:15 *781:15 0.00128468
13 *544:17 *781:17 0.044272
14 *704:5 *781:15 0
15 *743:17 *781:17 0.0108302
16 *758:5 *781:15 0
17 *763:5 *781:15 0
18 *770:5 *781:15 0.000245213
*RES
1 *874:gpio_slow_sel[39] *781:15 33.8044 
2 *781:15 *781:17 139.28 
3 *781:17 *781:19 3.41 
4 *781:19 *781:21 1117.45 
5 *781:21 gpio_slow_sel[39] 1.45536 
*END

*D_NET *782 0.445048
*CONN
*P gpio_slow_sel[3] O
*I *874:gpio_slow_sel[3] O *D counter_gpio_config_example
*CAP
1 gpio_slow_sel[3] 0.134825
2 *874:gpio_slow_sel[3] 0.00117987
3 *782:36 0
4 *782:31 0.134825
5 *782:29 0.0227303
6 *782:27 0.0240313
7 *782:23 0.00141126
8 *782:17 0.00329793
9 *782:15 0.00436755
10 *874:gpio_in[2] *782:27 0.00081294
11 *128:15 gpio_slow_sel[3] 0.00146357
12 *146:13 *782:29 0
13 *298:22 gpio_slow_sel[3] 0
14 *315:9 gpio_slow_sel[3] 0
15 *341:9 gpio_slow_sel[3] 0.00864642
16 *342:21 *782:27 0
17 *357:17 gpio_slow_sel[3] 0.000666473
18 *470:15 *782:15 0.00318102
19 *474:11 *782:29 0.0524939
20 *567:15 *782:17 0.0207973
21 *672:13 *782:29 0.000505102
22 *690:11 *782:15 0.000167887
23 *698:5 *782:15 0
24 *727:21 *782:17 0.018236
25 *738:17 *782:27 0.00421507
26 *760:11 *782:15 0.00262076
27 *760:15 *782:15 8.31093e-05
28 *760:15 *782:17 0.00432888
29 *771:9 *782:15 0.000161768
*RES
1 *874:gpio_slow_sel[3] *782:15 23.198 
2 *782:15 *782:17 197.268 
3 *782:17 *782:23 10.3393 
4 *782:23 *782:27 44.4643 
5 *782:27 *782:29 669.348 
6 *782:29 *782:31 3.41 
7 *782:31 gpio_slow_sel[3] 368.03 
8 gpio_slow_sel[3] *782:36 0.0626667 
*END

*D_NET *783 0.383124
*CONN
*P gpio_slow_sel[40] O
*I *874:gpio_slow_sel[40] O *D counter_gpio_config_example
*CAP
1 gpio_slow_sel[40] 0.00027699
2 *874:gpio_slow_sel[40] 0.00107983
3 *783:17 0.057529
4 *783:15 0.057252
5 *783:13 0.0269753
6 *783:11 0.0280551
7 *783:13 *829:16 0.00298162
8 *104:27 *783:13 0.00271051
9 *190:23 *783:13 0.000318385
10 *212:13 gpio_slow_sel[40] 0.000240676
11 *233:19 *783:11 0.000201384
12 *542:17 *783:11 1.83122e-05
13 *542:17 *783:13 0.00138666
14 *544:17 *783:11 0.000263236
15 *544:17 *783:13 3.5759e-05
16 *668:5 *783:11 0
17 *742:9 *783:13 0.111885
18 *743:17 *783:13 0.00483505
19 *770:5 *783:11 0
20 *781:17 *783:13 0.0870792
*RES
1 *874:gpio_slow_sel[40] *783:11 19.248 
2 *783:11 *783:13 181.619 
3 *783:13 *783:15 3.41 
4 *783:15 *783:17 1116.84 
5 *783:17 gpio_slow_sel[40] 5.83036 
*END

*D_NET *784 0.329282
*CONN
*P gpio_slow_sel[41] O
*I *874:gpio_slow_sel[41] O *D counter_gpio_config_example
*CAP
1 gpio_slow_sel[41] 0.00182821
2 *874:gpio_slow_sel[41] 0.00526779
3 *784:34 0.0742519
4 *784:32 0.0839861
5 *784:28 0.0151801
6 *784:24 0.00918715
7 *784:14 0.0163025
8 *784:12 0.0160009
9 *784:34 *830:9 0
10 *703:51 *784:24 0.00335551
11 *703:51 *784:28 0.0100899
12 *703:91 *784:14 0.00552455
13 *703:91 *784:24 0.00372698
14 *703:139 *784:12 0.00370677
15 *703:139 *784:14 0.00813293
16 *703:177 *784:12 0.013089
17 *736:10 *784:32 0
18 *736:16 *784:34 0
19 *740:16 *784:12 9.31015e-05
20 *765:13 *784:12 0.00893682
21 *765:13 *784:14 0.030637
22 *765:13 *784:24 0.014601
23 *765:13 *784:28 0.00538343
*RES
1 *874:gpio_slow_sel[41] *784:12 43.5599 
2 *784:12 *784:14 65.988 
3 *784:14 *784:24 33.3857 
4 *784:24 *784:28 22.9391 
5 *784:28 *784:32 33.2174 
6 *784:32 *784:34 189.835 
7 *784:34 gpio_slow_sel[41] 38.6868 
*END

*D_NET *785 0.226054
*CONN
*P gpio_slow_sel[42] O
*I *874:gpio_slow_sel[42] O *D counter_gpio_config_example
*CAP
1 gpio_slow_sel[42] 0.000107318
2 *874:gpio_slow_sel[42] 0.00766497
3 *785:13 0.00307175
4 *785:11 0.00296443
5 *785:9 0.10229
6 *785:7 0.10229
7 *785:5 0.00766497
8 *785:5 *786:7 0
9 *785:5 *832:7 0
10 *124:17 *785:9 0
11 *566:10 *785:9 0
*RES
1 *874:gpio_slow_sel[42] *785:5 152.455 
2 *785:5 *785:7 3.41 
3 *785:7 *785:9 268.495 
4 *785:9 *785:11 3.41 
5 *785:11 *785:13 57.9821 
6 *785:13 gpio_slow_sel[42] 2.25893 
*END

*D_NET *786 0.271404
*CONN
*P gpio_slow_sel[43] O
*I *874:gpio_slow_sel[43] O *D counter_gpio_config_example
*CAP
1 gpio_slow_sel[43] 0.000517687
2 *874:gpio_slow_sel[43] 0.00227442
3 *786:13 0.00844898
4 *786:11 0.00793129
5 *786:9 0.114598
6 *786:7 0.116872
7 *692:11 *786:9 0.0207613
8 *695:14 *786:9 0
9 *778:11 *786:7 0
10 *785:5 *786:7 0
*RES
1 *874:gpio_slow_sel[43] *786:7 44.7582 
2 *786:7 *786:9 311.663 
3 *786:9 *786:11 3.41 
4 *786:11 *786:13 163.446 
5 *786:13 gpio_slow_sel[43] 13.221 
*END

*D_NET *787 0.371528
*CONN
*P gpio_slow_sel[4] O
*I *874:gpio_slow_sel[4] O *D counter_gpio_config_example
*CAP
1 gpio_slow_sel[4] 0.000102415
2 *874:gpio_slow_sel[4] 0.00019554
3 *787:17 0.135028
4 *787:15 0.135639
5 *787:9 0.0111741
6 *787:7 0.0106566
7 *787:9 *804:9 0.000120342
8 *787:9 *829:16 0.00021932
9 *108:13 *787:15 0.00216052
10 *145:11 *787:17 0.00311357
11 *185:11 *787:17 0
12 *205:17 *787:9 3.51083e-05
13 *240:19 *787:9 0.000283042
14 *259:29 *787:9 0.00100503
15 *278:25 *787:9 0.00107712
16 *286:19 *787:9 0.00198253
17 *425:17 *787:9 0.00100483
18 *562:9 *787:9 0.000104613
19 *661:15 *787:9 0.00860394
20 *685:5 *787:7 0
21 *689:9 *787:9 0.000360421
22 *694:9 *787:9 0.0366743
23 *694:13 *787:15 0.000703432
24 *705:35 *787:9 0.00107831
25 *735:9 *787:9 0.00442718
26 *749:19 *787:9 0.0151561
27 *779:16 *787:9 0.000622286
*RES
1 *874:gpio_slow_sel[4] *787:7 6.50821 
2 *787:7 *787:9 59.8623 
3 *787:9 *787:15 34.2664 
4 *787:15 *787:17 367.526 
5 *787:17 gpio_slow_sel[4] 0.343883 
*END

*D_NET *788 0.320893
*CONN
*P gpio_slow_sel[5] O
*I *874:gpio_slow_sel[5] O *D counter_gpio_config_example
*CAP
1 gpio_slow_sel[5] 0.0055911
2 *874:gpio_slow_sel[5] 0.00627958
3 *788:13 0.00816514
4 *788:11 0.00257404
5 *788:9 0.142262
6 *788:7 0.142262
7 *788:5 0.00627958
8 *92:13 *788:13 0.00210152
9 *139:13 *788:9 0
10 *380:17 *788:9 0.00537843
11 *535:13 *788:9 0
12 *672:11 *788:5 0
13 *687:5 *788:5 0
*RES
1 *874:gpio_slow_sel[5] *788:5 120.277 
2 *788:5 *788:7 3.41 
3 *788:7 *788:9 390.792 
4 *788:9 *788:11 3.41 
5 *788:11 *788:13 52.9464 
6 *788:13 gpio_slow_sel[5] 16.1211 
*END

*D_NET *789 0.365696
*CONN
*P gpio_slow_sel[6] O
*I *874:gpio_slow_sel[6] O *D counter_gpio_config_example
*CAP
1 gpio_slow_sel[6] 0.164018
2 *874:gpio_slow_sel[6] 0.0187016
3 *789:12 1.42307e-05
4 *789:7 0.164003
5 *789:5 0.0187016
6 *789:5 *812:13 0
7 *305:13 gpio_slow_sel[6] 0
8 *468:13 *789:5 0.000257131
9 *570:10 gpio_slow_sel[6] 0
10 *681:7 *789:5 0
11 *721:13 *789:5 0
12 *776:5 *789:5 0
*RES
1 *874:gpio_slow_sel[6] *789:5 376.491 
2 *789:5 *789:7 3.41 
3 *789:7 gpio_slow_sel[6] 439.953 
4 gpio_slow_sel[6] *789:12 0.0477833 
*END

*D_NET *790 0.452729
*CONN
*P gpio_slow_sel[7] O
*I *874:gpio_slow_sel[7] O *D counter_gpio_config_example
*CAP
1 gpio_slow_sel[7] 0.00213857
2 *874:gpio_slow_sel[7] 0.0566579
3 *790:9 0.152567
4 *790:7 0.150428
5 *790:5 0.0566579
6 *482:9 gpio_slow_sel[7] 0
7 *482:9 *790:9 0
8 *706:13 *790:5 0.0342803
9 *707:5 *790:5 0
*RES
1 *874:gpio_slow_sel[7] *790:5 1155.46 
2 *790:5 *790:7 3.41 
3 *790:7 *790:9 406.071 
4 *790:9 gpio_slow_sel[7] 20.2838 
*END

*D_NET *791 0.468631
*CONN
*P gpio_slow_sel[8] O
*I *874:gpio_slow_sel[8] O *D counter_gpio_config_example
*CAP
1 gpio_slow_sel[8] 5.52898e-05
2 *874:gpio_slow_sel[8] 0.00335213
3 *791:17 0.150889
4 *791:15 0.150834
5 *791:13 0.0455805
6 *791:11 0.0516063
7 *791:5 0.00937793
8 *791:5 *804:7 0
9 *791:13 *801:13 0.000220214
10 gpio_holdover[22] *791:5 0.00179394
11 *228:13 *791:11 0
12 *307:21 *791:17 0
13 *676:5 *791:13 0.0400014
14 *678:11 *791:11 0.00249815
15 *680:11 *791:11 0.00470937
16 *754:13 *791:13 0.00771292
17 *768:5 *791:5 0
*RES
1 *874:gpio_slow_sel[8] *791:5 77.7768 
2 *791:5 *791:11 25.7485 
3 *791:11 *791:13 1290.91 
4 *791:13 *791:15 3.41 
5 *791:15 *791:17 406.946 
6 *791:17 gpio_slow_sel[8] 0.18565 
*END

*D_NET *792 0.615307
*CONN
*P gpio_slow_sel[9] O
*I *874:gpio_slow_sel[9] O *D counter_gpio_config_example
*CAP
1 gpio_slow_sel[9] 0.0102462
2 *874:gpio_slow_sel[9] 0.000108678
3 *792:21 0.0581973
4 *792:19 0.0479511
5 *792:17 0.144531
6 *792:15 0.144531
7 *792:13 0.0944502
8 *792:11 0.0945589
9 *792:17 *798:17 0
10 *484:9 gpio_slow_sel[9] 0
11 *698:5 *792:11 0
12 *719:5 *792:13 0.0113408
13 *727:19 *792:11 9.84683e-05
14 *751:13 *792:13 0.00726027
15 *775:5 *792:13 0.00203206
*RES
1 *874:gpio_slow_sel[9] *792:11 8.25189 
2 *792:11 *792:13 257.858 
3 *792:13 *792:15 3.41 
4 *792:15 *792:17 391.405 
5 *792:17 *792:19 3.41 
6 *792:19 *792:21 989.768 
7 *792:21 gpio_slow_sel[9] 28.4947 
*END

*D_NET *793 0.421385
*CONN
*P gpio_vtrip_sel[0] O
*I *874:gpio_vtrip_sel[0] O *D counter_gpio_config_example
*CAP
1 gpio_vtrip_sel[0] 1.65636e-05
2 *874:gpio_vtrip_sel[0] 0.000123295
3 *793:19 0.130602
4 *793:17 0.130586
5 *793:15 0.0388663
6 *793:13 0.0388663
7 *793:11 0.0143391
8 *793:9 0.0144624
9 *793:9 *803:5 0
10 gpio_ib_mode_sel[0] *793:19 0
11 *146:17 *793:11 0.000992558
12 *205:17 *793:11 0.00860687
13 *259:29 *793:11 0.000691448
14 *397:17 *793:19 0
15 *661:29 *793:19 0
16 *686:5 *793:9 0
17 *716:19 *793:11 0.0378363
18 *749:21 *793:11 0.00539653
*RES
1 *874:gpio_vtrip_sel[0] *793:9 6.76786 
2 *793:9 *793:11 428.5 
3 *793:11 *793:13 4.5 
4 *793:13 *793:15 783.795 
5 *793:15 *793:17 3.41 
6 *793:17 *793:19 356.139 
7 *793:19 gpio_vtrip_sel[0] 0.0556167 
*END

*D_NET *794 0.959103
*CONN
*P gpio_vtrip_sel[10] O
*I *874:gpio_vtrip_sel[10] O *D counter_gpio_config_example
*CAP
1 gpio_vtrip_sel[10] 0.00589839
2 *874:gpio_vtrip_sel[10] 0.000886892
3 *794:13 0.138576
4 *794:11 0.132677
5 *794:9 0.0555771
6 *794:7 0.056464
7 *794:7 *831:7 0
8 *100:13 *794:13 0.000692218
9 *131:13 *794:13 0.0646713
10 *564:10 *794:9 0.00125819
11 *662:31 gpio_vtrip_sel[10] 0
12 *701:9 *794:9 0.255102
13 *702:9 *794:9 0.242619
14 *706:17 gpio_vtrip_sel[10] 0
15 *718:9 *794:9 0.00468001
16 *737:5 *794:7 0
*RES
1 *874:gpio_vtrip_sel[10] *794:7 18.0439 
2 *794:7 *794:9 410.395 
3 *794:9 *794:11 3.41 
4 *794:11 *794:13 2724.98 
5 *794:13 gpio_vtrip_sel[10] 17.4215 
*END

*D_NET *795 0.593493
*CONN
*P gpio_vtrip_sel[11] O
*I *874:gpio_vtrip_sel[11] O *D counter_gpio_config_example
*CAP
1 gpio_vtrip_sel[11] 3.57963e-05
2 *874:gpio_vtrip_sel[11] 0.0755215
3 *795:9 0.14698
4 *795:7 0.146944
5 *795:5 0.0755215
6 *795:5 *802:5 0
7 *795:5 *805:21 0.0357611
8 gpio_ib_mode_sel[11] *795:9 0.00193339
9 *399:19 *795:9 0.0272013
10 *415:17 *795:9 0.0297565
11 *661:15 *795:5 0
12 *663:13 *795:9 0
13 *750:13 *795:5 0.0538382
*RES
1 *874:gpio_vtrip_sel[11] *795:5 2021.85 
2 *795:5 *795:7 3.41 
3 *795:7 *795:9 413.216 
4 *795:9 gpio_vtrip_sel[11] 0.11045 
*END

*D_NET *796 0.589056
*CONN
*P gpio_vtrip_sel[12] O
*I *874:gpio_vtrip_sel[12] O *D counter_gpio_config_example
*CAP
1 gpio_vtrip_sel[12] 0.000253267
2 *874:gpio_vtrip_sel[12] 0.00356727
3 *796:17 0.150785
4 *796:15 0.150532
5 *796:13 0.081202
6 *796:11 0.0847693
7 gpio_holdover[12] *796:17 0
8 gpio_out[12] *796:17 0
9 *143:13 *796:11 0.000292506
10 *370:17 *796:17 0.0035892
11 *400:17 *796:17 0
12 *682:5 *796:13 0.114065
13 *703:177 *796:11 0
14 *703:179 *796:11 0
15 *749:19 *796:11 0
16 *774:5 *796:13 0
*RES
1 *874:gpio_vtrip_sel[12] *796:11 48.0316 
2 *796:11 *796:13 2180.98 
3 *796:13 *796:15 3.41 
4 *796:15 *796:17 396.136 
5 *796:17 gpio_vtrip_sel[12] 0.84365 
*END

*D_NET *797 0.648903
*CONN
*P gpio_vtrip_sel[13] O
*I *874:gpio_vtrip_sel[13] O *D counter_gpio_config_example
*CAP
1 gpio_vtrip_sel[13] 8.88837e-05
2 *874:gpio_vtrip_sel[13] 0.00993236
3 *797:17 0.0538272
4 *797:15 0.0537384
5 *797:13 0.117813
6 *797:11 0.117813
7 *797:9 0.0746144
8 *797:7 0.0746144
9 *797:5 0.00993236
10 gpio_ib_mode_sel[13] *797:17 0.000395582
11 *281:19 *797:9 5.0027e-06
12 *401:17 *797:17 0.136127
13 *665:34 *797:17 0
14 *722:5 *797:5 0
15 *750:11 *797:5 0
*RES
1 *874:gpio_vtrip_sel[13] *797:5 194.348 
2 *797:5 *797:7 3.41 
3 *797:7 *797:9 198.447 
4 *797:9 *797:11 3.41 
5 *797:11 *797:13 2425.66 
6 *797:13 *797:15 3.41 
7 *797:15 *797:17 218.852 
8 *797:17 gpio_vtrip_sel[13] 0.29845 
*END

*D_NET *798 0.816789
*CONN
*P gpio_vtrip_sel[14] O
*I *874:gpio_vtrip_sel[14] O *D counter_gpio_config_example
*CAP
1 gpio_vtrip_sel[14] 0.00375792
2 *874:gpio_vtrip_sel[14] 0.000148021
3 *798:21 0.122317
4 *798:19 0.118559
5 *798:17 0.155741
6 *798:15 0.155741
7 *798:13 0.0843226
8 *798:11 0.0844706
9 *798:11 *800:11 0
10 *798:11 *828:5 0
11 *798:13 *800:13 0.0130154
12 *798:13 *814:13 0
13 *798:17 *801:17 0
14 gpio_ib_mode_sel[14] gpio_vtrip_sel[14] 0.00198168
15 *92:13 *798:21 0.0616619
16 *666:21 gpio_vtrip_sel[14] 0.00569041
17 *690:13 *798:11 5.26694e-05
18 *710:13 *798:13 0
19 *728:25 *798:17 0
20 *769:5 *798:13 0.00932938
21 *792:17 *798:17 0
*RES
1 *874:gpio_vtrip_sel[14] *798:11 8.25189 
2 *798:11 *798:13 258.923 
3 *798:13 *798:15 3.41 
4 *798:15 *798:17 420.448 
5 *798:17 *798:19 3.41 
6 *798:19 *798:21 2438.41 
7 *798:21 gpio_vtrip_sel[14] 15.9786 
*END

*D_NET *799 0.649919
*CONN
*P gpio_vtrip_sel[15] O
*I *874:gpio_vtrip_sel[15] O *D counter_gpio_config_example
*CAP
1 gpio_vtrip_sel[15] 8.83825e-05
2 *874:gpio_vtrip_sel[15] 0.0318766
3 *799:13 0.123058
4 *799:11 0.12297
5 *799:9 0.133125
6 *799:7 0.133125
7 *799:5 0.0318766
8 *799:9 *835:17 0
9 gpio_ib_mode_sel[15] gpio_vtrip_sel[15] 0
10 *226:13 *799:13 0.0737988
11 *403:21 *799:13 0
*RES
1 *874:gpio_vtrip_sel[15] *799:5 619.348 
2 *799:5 *799:7 3.41 
3 *799:7 *799:9 361.101 
4 *799:9 *799:11 3.41 
5 *799:11 *799:13 2533.12 
6 *799:13 gpio_vtrip_sel[15] 1.60714 
*END

*D_NET *800 0.76224
*CONN
*P gpio_vtrip_sel[16] O
*I *874:gpio_vtrip_sel[16] O *D counter_gpio_config_example
*CAP
1 gpio_vtrip_sel[16] 0.011077
2 *874:gpio_vtrip_sel[16] 0.000115629
3 *800:19 0.011077
4 *800:17 0.115935
5 *800:15 0.115935
6 *800:13 0.206423
7 *800:11 0.206539
8 gpio_ib_mode_sel[16] gpio_vtrip_sel[16] 0
9 *690:13 *800:11 2.81967e-05
10 *747:5 *800:13 0.0216489
11 *761:11 *800:11 0
12 *761:13 *800:13 0.0445806
13 *762:13 *800:13 0
14 *769:5 *800:13 0.0158656
15 *798:11 *800:11 0
16 *798:13 *800:13 0.0130154
*RES
1 *874:gpio_vtrip_sel[16] *800:11 8.17982 
2 *800:11 *800:13 671.846 
3 *800:13 *800:15 3.41 
4 *800:15 *800:17 316.6 
5 *800:17 *800:19 3.41 
6 *800:19 gpio_vtrip_sel[16] 218.027 
*END

*D_NET *801 0.616999
*CONN
*P gpio_vtrip_sel[17] O
*I *874:gpio_vtrip_sel[17] O *D counter_gpio_config_example
*CAP
1 gpio_vtrip_sel[17] 0.124497
2 *874:gpio_vtrip_sel[17] 0.000113398
3 *801:19 0.124497
4 *801:17 0.0925604
5 *801:15 0.0925604
6 *801:13 0.0844188
7 *801:11 0.0845322
8 *801:13 *810:13 0
9 gpio_ib_mode_sel[17] gpio_vtrip_sel[17] 0
10 *122:193 *801:13 0.000821112
11 *683:11 *801:11 5.26694e-05
12 *700:7 *801:11 0
13 *754:11 *801:11 0
14 *754:13 *801:13 0.0127261
15 *791:13 *801:13 0.000220214
16 *798:17 *801:17 0
*RES
1 *874:gpio_vtrip_sel[17] *801:11 8.25189 
2 *801:11 *801:13 259.988 
3 *801:13 *801:15 3.41 
4 *801:15 *801:17 249.506 
5 *801:17 *801:19 3.41 
6 *801:19 gpio_vtrip_sel[17] 2565.24 
*END

*D_NET *802 0.447376
*CONN
*P gpio_vtrip_sel[18] O
*I *874:gpio_vtrip_sel[18] O *D counter_gpio_config_example
*CAP
1 gpio_vtrip_sel[18] 0.121527
2 *874:gpio_vtrip_sel[18] 0.0322256
3 *802:11 0.121527
4 *802:9 0.0699354
5 *802:7 0.0699354
6 *802:5 0.0322256
7 gpio_ib_mode_sel[18] gpio_vtrip_sel[18] 0
8 *720:5 *802:5 0
9 *750:13 *802:5 0
10 *795:5 *802:5 0
*RES
1 *874:gpio_vtrip_sel[18] *802:5 650.312 
2 *802:5 *802:7 3.41 
3 *802:7 *802:9 186.988 
4 *802:9 *802:11 3.41 
5 *802:11 gpio_vtrip_sel[18] 2503.31 
*END

*D_NET *803 0.411658
*CONN
*P gpio_vtrip_sel[19] O
*I *874:gpio_vtrip_sel[19] O *D counter_gpio_config_example
*CAP
1 gpio_vtrip_sel[19] 0.148017
2 *874:gpio_vtrip_sel[19] 0.0058154
3 *803:11 0.148017
4 *803:9 0.0482813
5 *803:7 0.0482813
6 *803:5 0.0058154
7 gpio_ib_mode_sel[19] gpio_vtrip_sel[19] 0
8 *466:17 *803:9 0
9 *535:13 *803:9 0
10 *763:11 *803:9 0.00743044
11 *793:9 *803:5 0
*RES
1 *874:gpio_vtrip_sel[19] *803:5 108.134 
2 *803:5 *803:7 3.41 
3 *803:7 *803:9 124.362 
4 *803:9 *803:11 3.41 
5 *803:11 gpio_vtrip_sel[19] 3045.49 
*END

*D_NET *804 0.404233
*CONN
*P gpio_vtrip_sel[1] O
*I *874:gpio_vtrip_sel[1] O *D counter_gpio_config_example
*CAP
1 gpio_vtrip_sel[1] 0.0131095
2 *874:gpio_vtrip_sel[1] 0.000246993
3 *804:13 0.0416429
4 *804:11 0.0285334
5 *804:9 0.0733939
6 *804:7 0.0736409
7 gpio_ib_mode_sel[1] gpio_vtrip_sel[1] 0
8 *127:21 *804:9 0
9 *259:29 *804:9 0.126903
10 *278:25 *804:9 0.00785155
11 *408:17 gpio_vtrip_sel[1] 0
12 *562:9 *804:9 0.0344783
13 *661:15 *804:9 0.000923429
14 *716:27 gpio_vtrip_sel[1] 0
15 *735:9 *804:9 0.000252794
16 *749:19 *804:9 0.00313629
17 *787:9 *804:9 0.000120342
18 *791:5 *804:7 0
*RES
1 *874:gpio_vtrip_sel[1] *804:7 8.35714 
2 *804:7 *804:9 2242.62 
3 *804:9 *804:11 4.5 
4 *804:11 *804:13 583.134 
5 *804:13 gpio_vtrip_sel[1] 35.4804 
*END

*D_NET *805 0.621481
*CONN
*P gpio_vtrip_sel[20] O
*I *874:gpio_vtrip_sel[20] O *D counter_gpio_config_example
*CAP
1 gpio_vtrip_sel[20] 8.37064e-05
2 *874:gpio_vtrip_sel[20] 9.08177e-05
3 *805:29 0.00560063
4 *805:27 0.00551693
5 *805:25 0.0240369
6 *805:23 0.0240369
7 *805:21 0.195538
8 *805:19 0.200942
9 *805:13 0.0440619
10 *805:11 0.0387493
11 gpio_ib_mode_sel[20] gpio_vtrip_sel[20] 0
12 gpio_ib_mode_sel[20] *805:29 0
13 *122:131 *805:19 0.000123163
14 *122:193 *805:19 0
15 *145:13 *805:29 0
16 *187:17 *805:25 0.00231042
17 *368:61 *805:25 0
18 *674:7 *805:11 0
19 *727:19 *805:11 5.27153e-05
20 *750:13 *805:21 0.0445765
21 *795:5 *805:21 0.0357611
*RES
1 *874:gpio_vtrip_sel[20] *805:11 8.17982 
2 *805:11 *805:13 112.524 
3 *805:13 *805:19 15.8515 
4 *805:19 *805:21 562.665 
5 *805:21 *805:23 3.41 
6 *805:23 *805:25 66.2402 
7 *805:25 *805:27 3.41 
8 *805:27 *805:29 111.839 
9 *805:29 gpio_vtrip_sel[20] 1.60714 
*END

*D_NET *806 0.511003
*CONN
*P gpio_vtrip_sel[21] O
*I *874:gpio_vtrip_sel[21] O *D counter_gpio_config_example
*CAP
1 gpio_vtrip_sel[21] 7.81687e-05
2 *874:gpio_vtrip_sel[21] 0.000123207
3 *806:21 0.00849121
4 *806:19 0.0202608
5 *806:13 0.245206
6 *806:11 0.233481
7 *410:21 gpio_vtrip_sel[21] 2.18302e-05
8 *410:21 *806:21 0
9 *534:34 *806:19 0
10 *568:5 *806:13 0.00328798
11 *690:13 *806:11 5.26694e-05
12 *717:7 *806:11 0
13 *728:13 *806:13 0
14 *728:19 *806:13 0
15 *728:21 *806:13 0
16 *743:13 *806:13 0
*RES
1 *874:gpio_vtrip_sel[21] *806:11 8.25189 
2 *806:11 *806:13 680.582 
3 *806:13 *806:19 39.333 
4 *806:19 *806:21 167.089 
5 *806:21 gpio_vtrip_sel[21] 1.60714 
*END

*D_NET *807 0.539224
*CONN
*P gpio_vtrip_sel[22] O
*I *874:gpio_vtrip_sel[22] O *D counter_gpio_config_example
*CAP
1 gpio_vtrip_sel[22] 0.00997279
2 *874:gpio_vtrip_sel[22] 0.000148021
3 *807:19 0.0102476
4 *807:13 0.204507
5 *807:11 0.204381
6 *807:13 *835:13 0
7 gpio_ib_mode_sel[22] gpio_vtrip_sel[22] 0
8 *685:5 *807:13 0.000667494
9 *690:13 *807:11 5.26694e-05
10 *696:10 *807:13 0.0378989
11 *755:11 *807:11 0
12 *755:13 *807:13 0.0343671
13 *768:5 *807:13 0.0369817
14 *777:7 *807:11 0
*RES
1 *874:gpio_vtrip_sel[22] *807:11 8.25189 
2 *807:11 *807:13 674.616 
3 *807:13 *807:19 7.6237 
4 *807:19 gpio_vtrip_sel[22] 202.241 
*END

*D_NET *808 0.362573
*CONN
*P gpio_vtrip_sel[23] O
*I *874:gpio_vtrip_sel[23] O *D counter_gpio_config_example
*CAP
1 gpio_vtrip_sel[23] 0.00228493
2 *874:gpio_vtrip_sel[23] 0.14169
3 *808:13 0.0127217
4 *808:11 0.0104367
5 *808:9 0.0268747
6 *808:7 0.0268747
7 *808:5 0.14169
8 gpio_ib_mode_sel[23] gpio_vtrip_sel[23] 0
9 *412:9 *808:13 0
10 *572:5 *808:5 0
11 *666:17 *808:13 0
12 *745:5 *808:5 0
*RES
1 *874:gpio_vtrip_sel[23] *808:5 2905.24 
2 *808:5 *808:7 3.41 
3 *808:7 *808:9 72.7623 
4 *808:9 *808:11 3.41 
5 *808:11 *808:13 206.607 
6 *808:13 gpio_vtrip_sel[23] 42.9732 
*END

*D_NET *809 0.439186
*CONN
*P gpio_vtrip_sel[24] O
*I *874:gpio_vtrip_sel[24] O *D counter_gpio_config_example
*CAP
1 gpio_vtrip_sel[24] 0.00114044
2 *874:gpio_vtrip_sel[24] 0.00318484
3 *809:17 0.0295433
4 *809:15 0.0284029
5 *809:13 0.111728
6 *809:11 0.114913
7 *809:11 *818:5 0
8 gpio_ib_mode_sel[24] gpio_vtrip_sel[24] 0.00172768
9 gpio_ib_mode_sel[24] *809:17 0.00633594
10 gpio_oeb[24] *809:17 0
11 *143:13 *809:11 0.000247518
12 *677:17 *809:17 0
13 *680:13 *809:13 0.141962
14 *712:5 *809:11 0
15 *720:5 *809:13 0
16 *721:17 gpio_vtrip_sel[24] 0
17 *721:17 *809:17 0
18 *775:5 *809:13 0
*RES
1 *874:gpio_vtrip_sel[24] *809:11 47.383 
2 *809:11 *809:13 2938.7 
3 *809:13 *809:15 3.41 
4 *809:15 *809:17 78.8159 
5 *809:17 gpio_vtrip_sel[24] 11.3467 
*END

*D_NET *810 0.482209
*CONN
*P gpio_vtrip_sel[25] O
*I *874:gpio_vtrip_sel[25] O *D counter_gpio_config_example
*CAP
1 gpio_vtrip_sel[25] 0.00512683
2 *874:gpio_vtrip_sel[25] 0.000113398
3 *810:21 0.059924
4 *810:19 0.0547972
5 *810:17 0.0297113
6 *810:15 0.0297113
7 *810:13 0.0947977
8 *810:11 0.0949111
9 gpio_ib_mode_sel[25] gpio_vtrip_sel[25] 0.000193663
10 gpio_oeb[25] gpio_vtrip_sel[25] 0
11 *113:17 *810:17 0
12 *245:13 *810:17 0
13 *365:9 *810:21 0
14 *366:9 *810:21 0
15 *370:17 gpio_vtrip_sel[25] 0.00196618
16 *413:17 *810:21 0.0100011
17 *673:11 *810:11 0
18 *673:13 *810:13 0.0176743
19 *676:5 *810:13 0.00650037
20 *683:11 *810:11 5.26694e-05
21 *722:17 gpio_vtrip_sel[25] 0
22 *754:11 *810:11 0
23 *754:13 *810:13 0.0408495
24 *757:5 *810:13 0.0358789
25 *801:13 *810:13 0
*RES
1 *874:gpio_vtrip_sel[25] *810:11 8.25189 
2 *810:11 *810:13 348.624 
3 *810:13 *810:15 3.41 
4 *810:15 *810:17 75.1044 
5 *810:17 *810:19 3.41 
6 *810:19 *810:21 1125.16 
7 *810:21 gpio_vtrip_sel[25] 17.5139 
*END

*D_NET *811 0.339415
*CONN
*P gpio_vtrip_sel[26] O
*I *874:gpio_vtrip_sel[26] O *D counter_gpio_config_example
*CAP
1 gpio_vtrip_sel[26] 2.02963e-05
2 *874:gpio_vtrip_sel[26] 0.00679676
3 *811:17 0.0180248
4 *811:15 0.0180045
5 *811:13 0.0657257
6 *811:11 0.0703035
7 *811:5 0.0113745
8 *811:5 *812:5 0
9 gpio_ib_mode_sel[26] *811:17 0
10 gpio_inp_dis[22] *811:5 0
11 *139:13 *811:11 0.0134442
12 *415:17 *811:17 0
13 *556:17 *811:11 0.00230813
14 *663:13 *811:17 0.0138017
15 *685:13 *811:13 0.00469219
16 *723:9 *811:17 0
17 *725:21 *811:13 0.114919
18 *772:5 *811:5 0
*RES
1 *874:gpio_vtrip_sel[26] *811:5 126.955 
2 *811:5 *811:11 28.3429 
3 *811:11 *811:13 1901.7 
4 *811:13 *811:15 3.41 
5 *811:15 *811:17 51.371 
6 *811:17 gpio_vtrip_sel[26] 0.06815 
*END

*D_NET *812 0.320019
*CONN
*P gpio_vtrip_sel[27] O
*I *874:gpio_vtrip_sel[27] O *D counter_gpio_config_example
*CAP
1 gpio_vtrip_sel[27] 0.00541163
2 *874:gpio_vtrip_sel[27] 0.00381178
3 *812:19 0.0220673
4 *812:13 0.0707775
5 *812:11 0.0590152
6 *812:5 0.00870521
7 gpio_ib_mode_sel[27] gpio_vtrip_sel[27] 0.000593504
8 gpio_inp_dis[22] *812:5 0.0023311
9 *228:13 *812:11 0.00218585
10 *359:13 *812:11 0
11 *413:17 *812:19 0.000365668
12 *677:13 *812:13 0.132921
13 *680:17 *812:19 0
14 *681:7 *812:13 0.00491745
15 *684:11 *812:11 0.00691565
16 *688:5 *812:5 0
17 *724:17 gpio_vtrip_sel[27] 0
18 *789:5 *812:13 0
19 *811:5 *812:5 0
*RES
1 *874:gpio_vtrip_sel[27] *812:5 84.4554 
2 *812:5 *812:11 24.4513 
3 *812:11 *812:13 1746.27 
4 *812:13 *812:19 46.8082 
5 *812:19 gpio_vtrip_sel[27] 13.3315 
*END

*D_NET *813 0.38055
*CONN
*P gpio_vtrip_sel[28] O
*I *874:gpio_vtrip_sel[28] O *D counter_gpio_config_example
*CAP
1 gpio_vtrip_sel[28] 0.00195476
2 *874:gpio_vtrip_sel[28] 0.000663853
3 *813:13 0.130496
4 *813:11 0.128542
5 *813:9 0.0121009
6 *813:7 0.0127648
7 *813:7 *830:5 0
8 *813:9 *819:9 0.0361804
9 gpio_ib_mode_sel[28] gpio_vtrip_sel[28] 0.00147033
10 *462:19 *813:9 0.0496231
11 *529:13 *813:9 0.00580831
12 *674:9 *813:9 0.000945775
13 *706:11 *813:7 0
14 *725:25 gpio_vtrip_sel[28] 0
*RES
1 *874:gpio_vtrip_sel[28] *813:7 13.7939 
2 *813:7 *813:9 80.1131 
3 *813:9 *813:11 3.41 
4 *813:11 *813:13 2542.84 
5 *813:13 gpio_vtrip_sel[28] 8.67165 
*END

*D_NET *814 0.312972
*CONN
*P gpio_vtrip_sel[29] O
*I *874:gpio_vtrip_sel[29] O *D counter_gpio_config_example
*CAP
1 gpio_vtrip_sel[29] 0.0201073
2 *874:gpio_vtrip_sel[29] 0.000145642
3 *814:23 0.0201073
4 *814:21 0.0652461
5 *814:19 0.0707739
6 *814:13 0.0551531
7 *814:11 0.049771
8 gpio_holdover[29] gpio_vtrip_sel[29] 0
9 gpio_ib_mode_sel[29] gpio_vtrip_sel[29] 0
10 *535:13 *814:19 0
11 *682:9 gpio_vtrip_sel[29] 0
12 *686:5 *814:13 0.00133004
13 *690:13 *814:11 5.26694e-05
14 *710:11 *814:11 0
15 *710:13 *814:13 0.028172
16 *763:11 *814:19 0.00196919
17 *772:13 *814:13 0.000143652
18 *798:13 *814:13 0
*RES
1 *874:gpio_vtrip_sel[29] *814:11 8.25189 
2 *814:11 *814:13 175.72 
3 *814:13 *814:19 22.037 
4 *814:19 *814:21 1340.7 
5 *814:21 *814:23 3.41 
6 *814:23 gpio_vtrip_sel[29] 49.4072 
*END

*D_NET *815 0.548346
*CONN
*P gpio_vtrip_sel[2] O
*I *874:gpio_vtrip_sel[2] O *D counter_gpio_config_example
*CAP
1 gpio_vtrip_sel[2] 0.000100082
2 *874:gpio_vtrip_sel[2] 0.00585003
3 *815:21 0.0911753
4 *815:19 0.0910752
5 *815:17 0.0152651
6 *815:15 0.0211151
7 gpio_ib_mode_sel[2] *815:21 0.000782721
8 *874:gpio_in[12] *815:17 0
9 *137:11 *815:17 0
10 *160:15 *815:17 0.000205661
11 *177:11 *815:21 0.00111907
12 *214:11 *815:21 0.00479803
13 *234:11 *815:17 0
14 *234:13 *815:17 0.000289082
15 *362:9 *815:21 0
16 *419:17 *815:21 0.22484
17 *450:17 *815:15 0.000650365
18 *543:13 *815:17 0.00336062
19 *546:13 *815:17 0
20 *567:15 *815:15 0.00324461
21 *567:21 *815:15 0.000256092
22 *683:11 *815:15 0.0218998
23 *692:7 *815:15 5.31531e-05
24 *727:19 *815:15 3.47641e-06
25 *727:25 *815:17 0.0405639
26 *760:15 *815:15 0.0216978
*RES
1 *874:gpio_vtrip_sel[2] *815:15 47.7039 
2 *815:15 *815:17 513.768 
3 *815:17 *815:19 3.41 
4 *815:19 *815:21 370.192 
5 *815:21 gpio_vtrip_sel[2] 0.33605 
*END

*D_NET *816 0.249086
*CONN
*P gpio_vtrip_sel[30] O
*I *874:gpio_vtrip_sel[30] O *D counter_gpio_config_example
*CAP
1 gpio_vtrip_sel[30] 0.0134611
2 *874:gpio_vtrip_sel[30] 0.00510594
3 *816:13 0.0487726
4 *816:11 0.0386779
5 *816:5 0.00847227
6 gpio_ib_mode_sel[30] gpio_vtrip_sel[30] 0.000435879
7 *413:17 gpio_vtrip_sel[30] 0.000365668
8 *420:18 gpio_vtrip_sel[30] 0.0156049
9 *536:13 *816:11 0.00946086
10 *662:27 *816:13 0.0122944
11 *665:30 *816:13 0.0938508
12 *688:25 *816:11 0.00135099
13 *732:5 *816:5 0
14 *732:15 *816:13 0.00123251
15 *733:11 *816:5 0
*RES
1 *874:gpio_vtrip_sel[30] *816:5 96.5982 
2 *816:5 *816:11 22.0731 
3 *816:11 *816:13 1155.52 
4 *816:13 gpio_vtrip_sel[30] 42.8501 
*END

*D_NET *817 0.317851
*CONN
*P gpio_vtrip_sel[31] O
*I *874:gpio_vtrip_sel[31] O *D counter_gpio_config_example
*CAP
1 gpio_vtrip_sel[31] 0.00189759
2 *874:gpio_vtrip_sel[31] 0.000145642
3 *817:25 0.0282526
4 *817:23 0.026355
5 *817:21 0.0593544
6 *817:19 0.0652881
7 *817:13 0.034596
8 *817:11 0.028808
9 gpio_ib_mode_sel[22] *817:21 0.014204
10 gpio_ib_mode_sel[31] gpio_vtrip_sel[31] 0.000851436
11 *122:131 *817:19 0.000271058
12 *462:15 gpio_vtrip_sel[31] 0.000749301
13 *690:13 *817:11 5.26694e-05
14 *729:17 *817:25 0
15 *755:11 *817:11 0
16 *755:13 *817:13 0.0169625
17 *755:13 *817:19 0.00547598
18 *755:13 *817:21 0.0345863
*RES
1 *874:gpio_vtrip_sel[31] *817:11 8.25189 
2 *817:11 *817:13 104.957 
3 *817:13 *817:19 23.1303 
4 *817:19 *817:21 212.384 
5 *817:21 *817:23 3.41 
6 *817:23 *817:25 65.5916 
7 *817:25 gpio_vtrip_sel[31] 27.8022 
*END

*D_NET *818 0.133446
*CONN
*P gpio_vtrip_sel[32] O
*I *874:gpio_vtrip_sel[32] O *D counter_gpio_config_example
*CAP
1 gpio_vtrip_sel[32] 0.00390575
2 *874:gpio_vtrip_sel[32] 0.0180853
3 *818:13 0.00795735
4 *818:11 0.0040516
5 *818:9 0.0274652
6 *818:7 0.0274652
7 *818:5 0.0180853
8 gpio_ib_mode_sel[32] gpio_vtrip_sel[32] 6.1942e-05
9 gpio_oeb[32] gpio_vtrip_sel[32] 0
10 gpio_out[32] gpio_vtrip_sel[32] 0
11 *467:13 *818:9 3.01875e-05
12 *545:22 *818:9 0
13 *548:9 *818:13 0.0107781
14 *668:9 *818:9 0.0155599
15 *752:5 *818:5 0
16 *809:11 *818:5 0
*RES
1 *874:gpio_vtrip_sel[32] *818:5 361.312 
2 *818:5 *818:7 3.41 
3 *818:7 *818:9 76.6539 
4 *818:9 *818:11 3.41 
5 *818:11 *818:13 132.482 
6 *818:13 gpio_vtrip_sel[32] 11.899 
*END

*D_NET *819 0.237777
*CONN
*P gpio_vtrip_sel[33] O
*I *874:gpio_vtrip_sel[33] O *D counter_gpio_config_example
*CAP
1 gpio_vtrip_sel[33] 0.00320197
2 *874:gpio_vtrip_sel[33] 0.000713104
3 *819:13 0.0617616
4 *819:11 0.0585596
5 *819:9 0.00996469
6 *819:7 0.0106778
7 *416:23 *819:13 0.00627662
8 *416:25 *819:13 0.0138699
9 *417:9 *819:13 0
10 *423:17 gpio_vtrip_sel[33] 0.0005678
11 *424:9 *819:13 0.0100694
12 *424:35 *819:13 0
13 *529:13 *819:9 0.025934
14 *701:7 *819:7 0
15 *710:11 *819:7 0
16 *813:9 *819:9 0.0361804
*RES
1 *874:gpio_vtrip_sel[33] *819:7 14.4011 
2 *819:7 *819:9 58.2769 
3 *819:9 *819:11 3.41 
4 *819:11 *819:13 1202.27 
5 *819:13 gpio_vtrip_sel[33] 10.8525 
*END

*D_NET *820 0.245144
*CONN
*P gpio_vtrip_sel[34] O
*I *874:gpio_vtrip_sel[34] O *D counter_gpio_config_example
*CAP
1 gpio_vtrip_sel[34] 0.00344465
2 *874:gpio_vtrip_sel[34] 0.000270415
3 *820:13 0.0366269
4 *820:11 0.0331823
5 *820:9 0.00854386
6 *820:7 0.00881427
7 *820:7 *833:7 0
8 *820:9 *821:9 2.76513e-05
9 gpio_ib_mode_sel[34] gpio_vtrip_sel[34] 0.00446515
10 gpio_out[34] gpio_vtrip_sel[34] 0
11 *458:11 *820:13 0.080351
12 *460:21 *820:9 9.29581e-06
13 *470:15 *820:9 0.00325053
14 *662:19 *820:9 0.00069735
15 *726:19 *820:9 0.00931132
16 *730:7 *820:7 0
17 *777:9 *820:9 0.0359458
18 *778:11 *820:9 0.0202039
*RES
1 *874:gpio_vtrip_sel[34] *820:7 7.7225 
2 *820:7 *820:9 58.0607 
3 *820:9 *820:11 3.41 
4 *820:11 *820:13 1002.52 
5 *820:13 gpio_vtrip_sel[34] 13.1241 
*END

*D_NET *821 0.253224
*CONN
*P gpio_vtrip_sel[35] O
*I *874:gpio_vtrip_sel[35] O *D counter_gpio_config_example
*CAP
1 gpio_vtrip_sel[35] 0.00851116
2 *874:gpio_vtrip_sel[35] 0.000388107
3 *821:13 0.032492
4 *821:11 0.0239808
5 *821:9 0.00985368
6 *821:7 0.0102418
7 gpio_ib_mode_sel[35] gpio_vtrip_sel[35] 0.00051338
8 gpio_oeb[35] gpio_vtrip_sel[35] 0.0114744
9 *95:9 *821:13 0
10 *102:9 *821:13 0
11 *151:9 *821:13 0.0279692
12 *168:9 *821:13 0
13 *325:9 *821:13 0.0108782
14 *460:21 *821:9 0.000342617
15 *470:11 *821:13 0.0301792
16 *470:15 *821:9 0.043377
17 *471:15 *821:9 0.0428337
18 *725:11 *821:7 0
19 *726:19 *821:13 0.000118793
20 *730:19 *821:13 4.21517e-05
21 *820:9 *821:9 2.76513e-05
*RES
1 *874:gpio_vtrip_sel[35] *821:7 9.54393 
2 *821:7 *821:9 70.1679 
3 *821:9 *821:11 3.41 
4 *821:11 *821:13 812.482 
5 *821:13 gpio_vtrip_sel[35] 28.0826 
*END

*D_NET *822 0.0918454
*CONN
*P gpio_vtrip_sel[36] O
*I *874:gpio_vtrip_sel[36] O *D counter_gpio_config_example
*CAP
1 gpio_vtrip_sel[36] 0.00922603
2 *874:gpio_vtrip_sel[36] 0.00843688
3 *822:10 0.02211
4 *822:8 0.0213209
5 *822:8 *823:6 0.0212172
6 *183:9 *822:10 0
7 *193:9 *822:10 0.000831002
8 *205:17 *822:8 0.00394816
9 *284:9 *822:10 0.0046525
10 *304:9 *822:10 0
11 *377:15 *822:8 7.79859e-05
12 *691:9 *822:8 2.47301e-05
13 *734:9 *822:8 0
*RES
1 *874:gpio_vtrip_sel[36] *822:8 41.5311 
2 *822:8 *822:10 272.732 
3 *822:10 gpio_vtrip_sel[36] 24.0391 
*END

*D_NET *823 0.131512
*CONN
*P gpio_vtrip_sel[37] O
*I *874:gpio_vtrip_sel[37] O *D counter_gpio_config_example
*CAP
1 gpio_vtrip_sel[37] 0.00767647
2 *874:gpio_vtrip_sel[37] 0
3 *823:10 0.0304887
4 *823:8 0.0228123
5 *823:6 0.0205613
6 *823:4 0.0205613
7 *823:6 *826:12 0.0037734
8 gpio_analog_sel[37] gpio_vtrip_sel[37] 0.000244125
9 gpio_dm1[37] gpio_vtrip_sel[37] 0
10 gpio_ib_mode_sel[37] gpio_vtrip_sel[37] 7.20504e-05
11 *205:17 *823:6 0.00140601
12 *279:9 *823:10 0
13 *339:35 gpio_vtrip_sel[37] 0
14 *354:17 *823:10 0
15 *395:9 *823:10 0
16 *427:21 gpio_vtrip_sel[37] 0.000698555
17 *695:8 *823:6 0.000790248
18 *696:8 *823:6 0.000903786
19 *716:17 *823:6 0.000306802
20 *726:21 gpio_vtrip_sel[37] 0
21 *734:9 *823:6 0
22 *822:8 *823:6 0.0212172
*RES
1 *874:gpio_vtrip_sel[37] *823:4 3.41 
2 *823:4 *823:6 65.7718 
3 *823:6 *823:8 3.41 
4 *823:8 *823:10 450.625 
5 *823:10 gpio_vtrip_sel[37] 42.7427 
*END

*D_NET *824 0.175698
*CONN
*P gpio_vtrip_sel[38] O
*I *874:gpio_vtrip_sel[38] O *D counter_gpio_config_example
*CAP
1 gpio_vtrip_sel[38] 0.00221927
2 *874:gpio_vtrip_sel[38] 0.00146574
3 *824:16 0.00852004
4 *824:10 0.0728834
5 *824:8 0.0680483
6 *824:8 *825:8 0.000252403
7 *824:8 *826:12 0.000155537
8 *824:8 *829:16 5.27153e-05
9 *824:10 *825:10 0
10 *824:16 *830:9 0.0152405
11 *122:193 *824:10 2.28068e-05
12 *476:11 *824:16 0
13 *705:35 *824:8 0.0023851
14 *740:16 *824:8 0.00409945
15 *779:16 *824:8 0.000352657
*RES
1 *874:gpio_vtrip_sel[38] *824:8 14.9745 
2 *824:8 *824:10 186.267 
3 *824:10 *824:16 31.3336 
4 *824:16 gpio_vtrip_sel[38] 42.0625 
*END

*D_NET *825 0.217538
*CONN
*P gpio_vtrip_sel[39] O
*I *874:gpio_vtrip_sel[39] O *D counter_gpio_config_example
*CAP
1 gpio_vtrip_sel[39] 6.91415e-05
2 *874:gpio_vtrip_sel[39] 0.000630988
3 *825:18 0.00483382
4 *825:16 0.00476468
5 *825:14 0.0413707
6 *825:12 0.0413707
7 *825:10 0.0612044
8 *825:8 0.0618354
9 *825:8 *826:14 0.000580577
10 gpio_ib_mode_sel[39] *825:18 0
11 *205:17 *825:8 5.36681e-05
12 *429:13 *825:18 0
13 *696:14 *825:14 0
14 *705:35 *825:8 4.08767e-05
15 *740:16 *825:8 0.000530544
16 *824:8 *825:8 0.000252403
17 *824:10 *825:10 0
*RES
1 *874:gpio_vtrip_sel[39] *825:8 9.28123 
2 *825:8 *825:10 176.466 
3 *825:10 *825:12 3.41 
4 *825:12 *825:14 108.76 
5 *825:14 *825:16 3.41 
6 *825:16 *825:18 95.0179 
7 *825:18 gpio_vtrip_sel[39] 1.45536 
*END

*D_NET *826 0.362035
*CONN
*P gpio_vtrip_sel[3] O
*I *874:gpio_vtrip_sel[3] O *D counter_gpio_config_example
*CAP
1 gpio_vtrip_sel[3] 0.00138759
2 *874:gpio_vtrip_sel[3] 0.00398426
3 *826:22 0.13616
4 *826:20 0.134772
5 *826:18 0.00546668
6 *826:16 0.00546668
7 *826:14 0.00874371
8 *826:12 0.012728
9 gpio_vtrip_sel[3] *833:13 0
10 gpio_ib_mode_sel[3] gpio_vtrip_sel[3] 0.00194068
11 gpio_ib_mode_sel[3] *826:22 0
12 gpio_oeb[3] *826:22 0.00058733
13 *874:gpio_in[38] *826:14 0.00121015
14 *205:17 *826:12 0.00172512
15 *230:9 *826:22 0
16 *281:13 *826:18 0
17 *286:13 *826:18 0.00115869
18 *398:11 *826:22 0.00109419
19 *410:19 *826:14 0.00263186
20 *430:19 *826:22 0
21 *444:11 *826:18 0.013749
22 *694:17 *826:22 0
23 *703:177 *826:14 0.000143819
24 *705:35 *826:12 0.000552467
25 *740:16 *826:12 0.0029757
26 *740:16 *826:14 0.00053983
27 *740:18 *826:14 0.0205072
28 *823:6 *826:12 0.0037734
29 *824:8 *826:12 0.000155537
30 *825:8 *826:14 0.000580577
*RES
1 *874:gpio_vtrip_sel[3] *826:12 28.4092 
2 *826:12 *826:14 235.875 
3 *826:14 *826:16 4.5 
4 *826:16 *826:18 170.277 
5 *826:18 *826:20 3.41 
6 *826:20 *826:22 360.38 
7 *826:22 gpio_vtrip_sel[3] 15.1305 
*END

*D_NET *827 0.203413
*CONN
*P gpio_vtrip_sel[40] O
*I *874:gpio_vtrip_sel[40] O *D counter_gpio_config_example
*CAP
1 gpio_vtrip_sel[40] 0.00027699
2 *874:gpio_vtrip_sel[40] 0.000674311
3 *827:13 0.0102674
4 *827:11 0.00999038
5 *827:9 0.0291653
6 *827:7 0.0298396
7 gpio_out[40] *827:13 0
8 *155:21 *827:9 0.0439101
9 *212:13 gpio_vtrip_sel[40] 0.000240676
10 *462:19 *827:9 0.0147569
11 *529:13 *827:9 0.0378153
12 *674:9 *827:9 0.026476
13 *692:7 *827:7 0
*RES
1 *874:gpio_vtrip_sel[40] *827:7 13.7939 
2 *827:7 *827:9 159.386 
3 *827:9 *827:11 3.41 
4 *827:11 *827:13 200.054 
5 *827:13 gpio_vtrip_sel[40] 5.83036 
*END

*D_NET *828 0.300325
*CONN
*P gpio_vtrip_sel[41] O
*I *874:gpio_vtrip_sel[41] O *D counter_gpio_config_example
*CAP
1 gpio_vtrip_sel[41] 0.000330548
2 *874:gpio_vtrip_sel[41] 0.0101997
3 *828:13 0.0626968
4 *828:11 0.0631464
5 *828:5 0.0109799
6 *828:13 *873:13 0.00637445
7 gpio_dm0[41] *828:13 0.000439038
8 *257:19 *828:13 0.00332892
9 *300:21 *828:13 0.00350627
10 *340:17 *828:11 0.000435887
11 *340:17 *828:13 0.00534847
12 *344:35 *828:13 0.00309257
13 *345:17 gpio_vtrip_sel[41] 4.6025e-06
14 *432:23 gpio_vtrip_sel[41] 0
15 *433:22 *828:11 0.000276559
16 *433:22 *828:13 0.0258807
17 *478:9 *828:13 0
18 *739:9 *828:13 0.104284
19 *798:11 *828:5 0
*RES
1 *874:gpio_vtrip_sel[41] *828:5 204.67 
2 *828:5 *828:11 5.80857 
3 *828:11 *828:13 228.606 
4 *828:13 gpio_vtrip_sel[41] 10.1511 
*END

*D_NET *829 0.447922
*CONN
*P gpio_vtrip_sel[42] O
*I *874:gpio_vtrip_sel[42] O *D counter_gpio_config_example
*CAP
1 gpio_vtrip_sel[42] 0.000196527
2 *874:gpio_vtrip_sel[42] 0.127449
3 *829:18 0.0731203
4 *829:16 0.200373
5 gpio_ib_mode_sel[42] gpio_vtrip_sel[42] 9.96492e-06
6 *104:27 *829:16 0.00296021
7 *117:17 *829:16 0.000518005
8 *215:33 *829:16 8.75371e-05
9 *293:17 *829:16 0.00150794
10 *337:17 *829:16 0.00146125
11 *338:17 *829:16 0.00142305
12 *381:17 *829:16 0.000388792
13 *427:17 *829:16 0.000686078
14 *557:17 *829:16 0.00146125
15 *705:35 *829:16 0.0100457
16 *742:9 *829:16 0.0121623
17 *743:17 *829:16 0.00645583
18 *779:16 *829:16 0.00297646
19 *781:17 *829:16 0.0013857
20 *783:13 *829:16 0.00298162
21 *787:9 *829:16 0.00021932
22 *824:8 *829:16 5.27153e-05
*RES
1 *874:gpio_vtrip_sel[42] *829:16 36.974 
2 *829:16 *829:18 194.577 
3 *829:18 gpio_vtrip_sel[42] 8.06458 
*END

*D_NET *830 0.282534
*CONN
*P gpio_vtrip_sel[43] O
*I *874:gpio_vtrip_sel[43] O *D counter_gpio_config_example
*CAP
1 gpio_vtrip_sel[43] 0.00130013
2 *874:gpio_vtrip_sel[43] 0.00894561
3 *830:9 0.10302
4 *830:7 0.10172
5 *830:5 0.00894561
6 *121:17 *830:9 0.0401756
7 *434:21 gpio_vtrip_sel[43] 0.00318645
8 *476:11 *830:9 0
9 *690:11 *830:5 0
10 *784:34 *830:9 0
11 *813:7 *830:5 0
12 *824:16 *830:9 0.0152405
*RES
1 *874:gpio_vtrip_sel[43] *830:5 170.67 
2 *830:5 *830:7 3.41 
3 *830:7 *830:9 295.232 
4 *830:9 gpio_vtrip_sel[43] 43.1154 
*END

*D_NET *831 0.731922
*CONN
*P gpio_vtrip_sel[4] O
*I *874:gpio_vtrip_sel[4] O *D counter_gpio_config_example
*CAP
1 gpio_vtrip_sel[4] 0.00402135
2 *874:gpio_vtrip_sel[4] 0.00123062
3 *831:13 0.0513416
4 *831:11 0.0473203
5 *831:9 0.0612093
6 *831:7 0.0624399
7 *699:9 gpio_vtrip_sel[4] 0
8 *711:19 *831:9 0.0408497
9 *714:19 *831:9 0.000313881
10 *743:17 gpio_vtrip_sel[4] 0.00194587
11 *744:7 *831:7 0
12 *744:9 *831:9 0.261591
13 *756:9 *831:9 0.199658
14 *794:7 *831:7 0
*RES
1 *874:gpio_vtrip_sel[4] *831:7 24.1154 
2 *831:7 *831:9 414.142 
3 *831:9 *831:11 3.41 
4 *831:11 *831:13 932.089 
5 *831:13 gpio_vtrip_sel[4] 14.3101 
*END

*D_NET *832 0.530332
*CONN
*P gpio_vtrip_sel[5] O
*I *874:gpio_vtrip_sel[5] O *D counter_gpio_config_example
*CAP
1 gpio_vtrip_sel[5] 0.00181378
2 *874:gpio_vtrip_sel[5] 0.00105608
3 *832:13 0.0592564
4 *832:11 0.0574427
5 *832:9 0.0843535
6 *832:7 0.0854096
7 *832:9 *833:9 0.0939502
8 gpio_ib_mode_sel[5] gpio_vtrip_sel[5] 0.001469
9 *208:38 *832:9 0.00116273
10 *389:13 *832:9 0
11 *529:13 *832:9 0
12 *564:10 *832:9 0.0607335
13 *701:9 *832:9 0
14 *702:9 *832:9 0.0319182
15 *713:9 *832:9 0.0344162
16 *714:19 *832:9 0.0173504
17 *741:5 *832:7 0
18 *785:5 *832:7 0
*RES
1 *874:gpio_vtrip_sel[5] *832:7 21.0796 
2 *832:7 *832:9 430.645 
3 *832:9 *832:11 3.41 
4 *832:11 *832:13 1133.05 
5 *832:13 gpio_vtrip_sel[5] 8.35988 
*END

*D_NET *833 0.675104
*CONN
*P gpio_vtrip_sel[6] O
*I *874:gpio_vtrip_sel[6] O *D counter_gpio_config_example
*CAP
1 gpio_vtrip_sel[6] 0.00101794
2 *874:gpio_vtrip_sel[6] 0.00114403
3 *833:13 0.06883
4 *833:11 0.067812
5 *833:9 0.0685983
6 *833:7 0.0697423
7 gpio_analog_en[4] *833:13 0
8 gpio_dm0[1] *833:13 0
9 gpio_dm0[2] *833:13 0
10 gpio_dm0[3] *833:13 0
11 gpio_dm0[4] *833:13 0
12 gpio_dm0[5] *833:13 0
13 gpio_dm2[2] *833:13 0
14 gpio_ib_mode_sel[6] gpio_vtrip_sel[6] 0.000798618
15 gpio_out[2] *833:13 0
16 gpio_out[3] *833:13 0
17 gpio_vtrip_sel[3] *833:13 0
18 *208:38 *833:9 0.00222551
19 *389:13 *833:9 0.000332075
20 *529:17 *833:13 0
21 *711:19 *833:9 0.0352432
22 *714:19 *833:9 0.000533822
23 *744:9 *833:9 0.264629
24 *756:9 *833:9 0.000247396
25 *820:7 *833:7 0
26 *832:9 *833:9 0.0939502
*RES
1 *874:gpio_vtrip_sel[6] *833:7 22.9011 
2 *833:7 *833:9 425.745 
3 *833:9 *833:11 3.41 
4 *833:11 *833:13 1337.05 
5 *833:13 gpio_vtrip_sel[6] 6.12895 
*END

*D_NET *834 0.491338
*CONN
*P gpio_vtrip_sel[7] O
*I *874:gpio_vtrip_sel[7] O *D counter_gpio_config_example
*CAP
1 gpio_vtrip_sel[7] 0.0111036
2 *874:gpio_vtrip_sel[7] 0.0249491
3 *834:13 0.0464744
4 *834:11 0.0353708
5 *834:9 0.133869
6 *834:7 0.133869
7 *834:5 0.0249491
8 gpio_ib_mode_sel[7] gpio_vtrip_sel[7] 0.000259942
9 gpio_oeb[7] gpio_vtrip_sel[7] 0
10 *422:17 *834:9 0.0293553
11 *438:13 gpio_vtrip_sel[7] 0.0216907
12 *667:13 *834:13 0
13 *711:21 *834:13 0.0294467
14 *719:5 *834:5 0
15 *722:5 *834:5 0
*RES
1 *874:gpio_vtrip_sel[7] *834:5 483.955 
2 *834:5 *834:7 3.41 
3 *834:7 *834:9 377.965 
4 *834:9 *834:11 3.41 
5 *834:11 *834:13 731.125 
6 *834:13 gpio_vtrip_sel[7] 42.1153 
*END

*D_NET *835 0.624634
*CONN
*P gpio_vtrip_sel[8] O
*I *874:gpio_vtrip_sel[8] O *D counter_gpio_config_example
*CAP
1 gpio_vtrip_sel[8] 0.0026703
2 *874:gpio_vtrip_sel[8] 0.000113249
3 *835:21 0.0275255
4 *835:19 0.0248552
5 *835:17 0.154682
6 *835:15 0.154682
7 *835:13 0.0941541
8 *835:11 0.0942674
9 gpio_holdover[22] *835:13 0.00459202
10 gpio_ib_mode_sel[8] gpio_vtrip_sel[8] 0.000971411
11 gpio_oeb[8] gpio_vtrip_sel[8] 0
12 *439:13 gpio_vtrip_sel[8] 0.00288196
13 *483:11 *835:21 0.0604449
14 *484:11 *835:21 0.00276617
15 *690:13 *835:11 2.81967e-05
16 *696:10 *835:13 0
17 *744:7 *835:11 0
18 *799:9 *835:17 0
19 *807:13 *835:13 0
*RES
1 *874:gpio_vtrip_sel[8] *835:11 8.17982 
2 *835:11 *835:13 264.356 
3 *835:13 *835:15 3.41 
4 *835:15 *835:17 417.421 
5 *835:17 *835:19 3.41 
6 *835:19 *835:21 805.196 
7 *835:21 gpio_vtrip_sel[8] 11.4212 
*END

*D_NET *836 0.6452
*CONN
*P gpio_vtrip_sel[9] O
*I *874:gpio_vtrip_sel[9] O *D counter_gpio_config_example
*CAP
1 gpio_vtrip_sel[9] 0.000247521
2 *874:gpio_vtrip_sel[9] 0.000562957
3 *836:17 0.152276
4 *836:15 0.152029
5 *836:13 0.138886
6 *836:11 0.139449
7 gpio_holdover[9] *836:17 0
8 *440:13 *836:17 0
9 *683:11 *836:11 0.000481087
10 *702:7 *836:11 0
11 *725:13 *836:13 0.0317854
12 *748:17 *836:17 0
13 *767:5 *836:13 0.0294833
*RES
1 *874:gpio_vtrip_sel[9] *836:11 9.62115 
2 *836:11 *836:13 440.136 
3 *836:13 *836:15 3.41 
4 *836:15 *836:17 402.658 
5 *836:17 gpio_vtrip_sel[9] 0.831117 
*END

*D_NET *873 0.0344905
*CONN
*P resetb_l I
*I *874:resetb_l I *D counter_gpio_config_example
*CAP
1 resetb_l 0.00314447
2 *874:resetb_l 0.0102539
3 *873:13 0.0133983
4 *433:22 *873:13 0.00131935
5 *728:11 *874:resetb_l 0
6 *828:13 *873:13 0.00637445
*RES
1 resetb_l *873:13 24.2612 
2 *873:13 *874:resetb_l 204.67 
*END
