*SPEF "ieee 1481-1999"
*DESIGN "openframe_project_wrapper"
*DATE "04:57:44 Monday February 09, 2026"
*VENDOR "The OpenROAD Project"
*PROGRAM "OpenROAD"
*VERSION "edf00dff99f6c40d67a30c0e22a8191c5d2ed9d6"
*DESIGN_FLOW "NAME_SCOPE LOCAL" "PIN_CAP NONE"
*DIVIDER /
*DELIMITER :
*BUS_DELIMITER []
*T_UNIT 1 NS
*C_UNIT 1 PF
*R_UNIT 1 OHM
*L_UNIT 1 HENRY

*NAME_MAP
*1 analog_io[0]
*2 analog_io[10]
*3 analog_io[11]
*4 analog_io[12]
*5 analog_io[13]
*6 analog_io[14]
*7 analog_io[15]
*8 analog_io[16]
*9 analog_io[17]
*10 analog_io[18]
*11 analog_io[19]
*12 analog_io[1]
*13 analog_io[20]
*14 analog_io[21]
*15 analog_io[22]
*16 analog_io[23]
*17 analog_io[24]
*18 analog_io[25]
*19 analog_io[26]
*20 analog_io[27]
*21 analog_io[28]
*22 analog_io[29]
*23 analog_io[2]
*24 analog_io[30]
*25 analog_io[31]
*26 analog_io[32]
*27 analog_io[33]
*28 analog_io[34]
*29 analog_io[35]
*30 analog_io[36]
*31 analog_io[37]
*32 analog_io[38]
*33 analog_io[39]
*34 analog_io[3]
*35 analog_io[40]
*36 analog_io[41]
*37 analog_io[42]
*38 analog_io[43]
*39 analog_io[4]
*40 analog_io[5]
*41 analog_io[6]
*42 analog_io[7]
*43 analog_io[8]
*44 analog_io[9]
*45 analog_noesd_io[0]
*46 analog_noesd_io[10]
*47 analog_noesd_io[11]
*48 analog_noesd_io[12]
*49 analog_noesd_io[13]
*50 analog_noesd_io[14]
*51 analog_noesd_io[15]
*52 analog_noesd_io[16]
*53 analog_noesd_io[17]
*54 analog_noesd_io[18]
*55 analog_noesd_io[19]
*56 analog_noesd_io[1]
*57 analog_noesd_io[20]
*58 analog_noesd_io[21]
*59 analog_noesd_io[22]
*60 analog_noesd_io[23]
*61 analog_noesd_io[24]
*62 analog_noesd_io[25]
*63 analog_noesd_io[26]
*64 analog_noesd_io[27]
*65 analog_noesd_io[28]
*66 analog_noesd_io[29]
*67 analog_noesd_io[2]
*68 analog_noesd_io[30]
*69 analog_noesd_io[31]
*70 analog_noesd_io[32]
*71 analog_noesd_io[33]
*72 analog_noesd_io[34]
*73 analog_noesd_io[35]
*74 analog_noesd_io[36]
*75 analog_noesd_io[37]
*76 analog_noesd_io[38]
*77 analog_noesd_io[39]
*78 analog_noesd_io[3]
*79 analog_noesd_io[40]
*80 analog_noesd_io[41]
*81 analog_noesd_io[42]
*82 analog_noesd_io[43]
*83 analog_noesd_io[4]
*84 analog_noesd_io[5]
*85 analog_noesd_io[6]
*86 analog_noesd_io[7]
*87 analog_noesd_io[8]
*88 analog_noesd_io[9]
*89 gpio_analog_en[0]
*90 gpio_analog_en[10]
*91 gpio_analog_en[11]
*92 gpio_analog_en[12]
*93 gpio_analog_en[13]
*94 gpio_analog_en[14]
*95 gpio_analog_en[15]
*96 gpio_analog_en[16]
*97 gpio_analog_en[17]
*98 gpio_analog_en[18]
*99 gpio_analog_en[19]
*100 gpio_analog_en[1]
*101 gpio_analog_en[20]
*102 gpio_analog_en[21]
*103 gpio_analog_en[22]
*104 gpio_analog_en[23]
*105 gpio_analog_en[24]
*106 gpio_analog_en[25]
*107 gpio_analog_en[26]
*108 gpio_analog_en[27]
*109 gpio_analog_en[28]
*110 gpio_analog_en[29]
*111 gpio_analog_en[2]
*112 gpio_analog_en[30]
*113 gpio_analog_en[31]
*114 gpio_analog_en[32]
*115 gpio_analog_en[33]
*116 gpio_analog_en[34]
*117 gpio_analog_en[35]
*118 gpio_analog_en[36]
*119 gpio_analog_en[37]
*120 gpio_analog_en[38]
*121 gpio_analog_en[39]
*122 gpio_analog_en[3]
*123 gpio_analog_en[40]
*124 gpio_analog_en[41]
*125 gpio_analog_en[42]
*126 gpio_analog_en[43]
*127 gpio_analog_en[4]
*128 gpio_analog_en[5]
*129 gpio_analog_en[6]
*130 gpio_analog_en[7]
*131 gpio_analog_en[8]
*132 gpio_analog_en[9]
*133 gpio_analog_pol[0]
*134 gpio_analog_pol[10]
*135 gpio_analog_pol[11]
*136 gpio_analog_pol[12]
*137 gpio_analog_pol[13]
*138 gpio_analog_pol[14]
*139 gpio_analog_pol[15]
*140 gpio_analog_pol[16]
*141 gpio_analog_pol[17]
*142 gpio_analog_pol[18]
*143 gpio_analog_pol[19]
*144 gpio_analog_pol[1]
*145 gpio_analog_pol[20]
*146 gpio_analog_pol[21]
*147 gpio_analog_pol[22]
*148 gpio_analog_pol[23]
*149 gpio_analog_pol[24]
*150 gpio_analog_pol[25]
*151 gpio_analog_pol[26]
*152 gpio_analog_pol[27]
*153 gpio_analog_pol[28]
*154 gpio_analog_pol[29]
*155 gpio_analog_pol[2]
*156 gpio_analog_pol[30]
*157 gpio_analog_pol[31]
*158 gpio_analog_pol[32]
*159 gpio_analog_pol[33]
*160 gpio_analog_pol[34]
*161 gpio_analog_pol[35]
*162 gpio_analog_pol[36]
*163 gpio_analog_pol[37]
*164 gpio_analog_pol[38]
*165 gpio_analog_pol[39]
*166 gpio_analog_pol[3]
*167 gpio_analog_pol[40]
*168 gpio_analog_pol[41]
*169 gpio_analog_pol[42]
*170 gpio_analog_pol[43]
*171 gpio_analog_pol[4]
*172 gpio_analog_pol[5]
*173 gpio_analog_pol[6]
*174 gpio_analog_pol[7]
*175 gpio_analog_pol[8]
*176 gpio_analog_pol[9]
*177 gpio_analog_sel[0]
*178 gpio_analog_sel[10]
*179 gpio_analog_sel[11]
*180 gpio_analog_sel[12]
*181 gpio_analog_sel[13]
*182 gpio_analog_sel[14]
*183 gpio_analog_sel[15]
*184 gpio_analog_sel[16]
*185 gpio_analog_sel[17]
*186 gpio_analog_sel[18]
*187 gpio_analog_sel[19]
*188 gpio_analog_sel[1]
*189 gpio_analog_sel[20]
*190 gpio_analog_sel[21]
*191 gpio_analog_sel[22]
*192 gpio_analog_sel[23]
*193 gpio_analog_sel[24]
*194 gpio_analog_sel[25]
*195 gpio_analog_sel[26]
*196 gpio_analog_sel[27]
*197 gpio_analog_sel[28]
*198 gpio_analog_sel[29]
*199 gpio_analog_sel[2]
*200 gpio_analog_sel[30]
*201 gpio_analog_sel[31]
*202 gpio_analog_sel[32]
*203 gpio_analog_sel[33]
*204 gpio_analog_sel[34]
*205 gpio_analog_sel[35]
*206 gpio_analog_sel[36]
*207 gpio_analog_sel[37]
*208 gpio_analog_sel[38]
*209 gpio_analog_sel[39]
*210 gpio_analog_sel[3]
*211 gpio_analog_sel[40]
*212 gpio_analog_sel[41]
*213 gpio_analog_sel[42]
*214 gpio_analog_sel[43]
*215 gpio_analog_sel[4]
*216 gpio_analog_sel[5]
*217 gpio_analog_sel[6]
*218 gpio_analog_sel[7]
*219 gpio_analog_sel[8]
*220 gpio_analog_sel[9]
*221 gpio_dm0[0]
*222 gpio_dm0[10]
*223 gpio_dm0[11]
*224 gpio_dm0[12]
*225 gpio_dm0[13]
*226 gpio_dm0[14]
*227 gpio_dm0[15]
*228 gpio_dm0[16]
*229 gpio_dm0[17]
*230 gpio_dm0[18]
*231 gpio_dm0[19]
*232 gpio_dm0[1]
*233 gpio_dm0[20]
*234 gpio_dm0[21]
*235 gpio_dm0[22]
*236 gpio_dm0[23]
*237 gpio_dm0[24]
*238 gpio_dm0[25]
*239 gpio_dm0[26]
*240 gpio_dm0[27]
*241 gpio_dm0[28]
*242 gpio_dm0[29]
*243 gpio_dm0[2]
*244 gpio_dm0[30]
*245 gpio_dm0[31]
*246 gpio_dm0[32]
*247 gpio_dm0[33]
*248 gpio_dm0[34]
*249 gpio_dm0[35]
*250 gpio_dm0[36]
*251 gpio_dm0[37]
*252 gpio_dm0[38]
*253 gpio_dm0[39]
*254 gpio_dm0[3]
*255 gpio_dm0[40]
*256 gpio_dm0[41]
*257 gpio_dm0[42]
*258 gpio_dm0[43]
*259 gpio_dm0[4]
*260 gpio_dm0[5]
*261 gpio_dm0[6]
*262 gpio_dm0[7]
*263 gpio_dm0[8]
*264 gpio_dm0[9]
*265 gpio_dm1[0]
*266 gpio_dm1[10]
*267 gpio_dm1[11]
*268 gpio_dm1[12]
*269 gpio_dm1[13]
*270 gpio_dm1[14]
*271 gpio_dm1[15]
*272 gpio_dm1[16]
*273 gpio_dm1[17]
*274 gpio_dm1[18]
*275 gpio_dm1[19]
*276 gpio_dm1[1]
*277 gpio_dm1[20]
*278 gpio_dm1[21]
*279 gpio_dm1[22]
*280 gpio_dm1[23]
*281 gpio_dm1[24]
*282 gpio_dm1[25]
*283 gpio_dm1[26]
*284 gpio_dm1[27]
*285 gpio_dm1[28]
*286 gpio_dm1[29]
*287 gpio_dm1[2]
*288 gpio_dm1[30]
*289 gpio_dm1[31]
*290 gpio_dm1[32]
*291 gpio_dm1[33]
*292 gpio_dm1[34]
*293 gpio_dm1[35]
*294 gpio_dm1[36]
*295 gpio_dm1[37]
*296 gpio_dm1[38]
*297 gpio_dm1[39]
*298 gpio_dm1[3]
*299 gpio_dm1[40]
*300 gpio_dm1[41]
*301 gpio_dm1[42]
*302 gpio_dm1[43]
*303 gpio_dm1[4]
*304 gpio_dm1[5]
*305 gpio_dm1[6]
*306 gpio_dm1[7]
*307 gpio_dm1[8]
*308 gpio_dm1[9]
*309 gpio_dm2[0]
*310 gpio_dm2[10]
*311 gpio_dm2[11]
*312 gpio_dm2[12]
*313 gpio_dm2[13]
*314 gpio_dm2[14]
*315 gpio_dm2[15]
*316 gpio_dm2[16]
*317 gpio_dm2[17]
*318 gpio_dm2[18]
*319 gpio_dm2[19]
*320 gpio_dm2[1]
*321 gpio_dm2[20]
*322 gpio_dm2[21]
*323 gpio_dm2[22]
*324 gpio_dm2[23]
*325 gpio_dm2[24]
*326 gpio_dm2[25]
*327 gpio_dm2[26]
*328 gpio_dm2[27]
*329 gpio_dm2[28]
*330 gpio_dm2[29]
*331 gpio_dm2[2]
*332 gpio_dm2[30]
*333 gpio_dm2[31]
*334 gpio_dm2[32]
*335 gpio_dm2[33]
*336 gpio_dm2[34]
*337 gpio_dm2[35]
*338 gpio_dm2[36]
*339 gpio_dm2[37]
*340 gpio_dm2[38]
*341 gpio_dm2[39]
*342 gpio_dm2[3]
*343 gpio_dm2[40]
*344 gpio_dm2[41]
*345 gpio_dm2[42]
*346 gpio_dm2[43]
*347 gpio_dm2[4]
*348 gpio_dm2[5]
*349 gpio_dm2[6]
*350 gpio_dm2[7]
*351 gpio_dm2[8]
*352 gpio_dm2[9]
*353 gpio_holdover[0]
*354 gpio_holdover[10]
*355 gpio_holdover[11]
*356 gpio_holdover[12]
*357 gpio_holdover[13]
*358 gpio_holdover[14]
*359 gpio_holdover[15]
*360 gpio_holdover[16]
*361 gpio_holdover[17]
*362 gpio_holdover[18]
*363 gpio_holdover[19]
*364 gpio_holdover[1]
*365 gpio_holdover[20]
*366 gpio_holdover[21]
*367 gpio_holdover[22]
*368 gpio_holdover[23]
*369 gpio_holdover[24]
*370 gpio_holdover[25]
*371 gpio_holdover[26]
*372 gpio_holdover[27]
*373 gpio_holdover[28]
*374 gpio_holdover[29]
*375 gpio_holdover[2]
*376 gpio_holdover[30]
*377 gpio_holdover[31]
*378 gpio_holdover[32]
*379 gpio_holdover[33]
*380 gpio_holdover[34]
*381 gpio_holdover[35]
*382 gpio_holdover[36]
*383 gpio_holdover[37]
*384 gpio_holdover[38]
*385 gpio_holdover[39]
*386 gpio_holdover[3]
*387 gpio_holdover[40]
*388 gpio_holdover[41]
*389 gpio_holdover[42]
*390 gpio_holdover[43]
*391 gpio_holdover[4]
*392 gpio_holdover[5]
*393 gpio_holdover[6]
*394 gpio_holdover[7]
*395 gpio_holdover[8]
*396 gpio_holdover[9]
*397 gpio_ib_mode_sel[0]
*398 gpio_ib_mode_sel[10]
*399 gpio_ib_mode_sel[11]
*400 gpio_ib_mode_sel[12]
*401 gpio_ib_mode_sel[13]
*402 gpio_ib_mode_sel[14]
*403 gpio_ib_mode_sel[15]
*404 gpio_ib_mode_sel[16]
*405 gpio_ib_mode_sel[17]
*406 gpio_ib_mode_sel[18]
*407 gpio_ib_mode_sel[19]
*408 gpio_ib_mode_sel[1]
*409 gpio_ib_mode_sel[20]
*410 gpio_ib_mode_sel[21]
*411 gpio_ib_mode_sel[22]
*412 gpio_ib_mode_sel[23]
*413 gpio_ib_mode_sel[24]
*414 gpio_ib_mode_sel[25]
*415 gpio_ib_mode_sel[26]
*416 gpio_ib_mode_sel[27]
*417 gpio_ib_mode_sel[28]
*418 gpio_ib_mode_sel[29]
*419 gpio_ib_mode_sel[2]
*420 gpio_ib_mode_sel[30]
*421 gpio_ib_mode_sel[31]
*422 gpio_ib_mode_sel[32]
*423 gpio_ib_mode_sel[33]
*424 gpio_ib_mode_sel[34]
*425 gpio_ib_mode_sel[35]
*426 gpio_ib_mode_sel[36]
*427 gpio_ib_mode_sel[37]
*428 gpio_ib_mode_sel[38]
*429 gpio_ib_mode_sel[39]
*430 gpio_ib_mode_sel[3]
*431 gpio_ib_mode_sel[40]
*432 gpio_ib_mode_sel[41]
*433 gpio_ib_mode_sel[42]
*434 gpio_ib_mode_sel[43]
*435 gpio_ib_mode_sel[4]
*436 gpio_ib_mode_sel[5]
*437 gpio_ib_mode_sel[6]
*438 gpio_ib_mode_sel[7]
*439 gpio_ib_mode_sel[8]
*440 gpio_ib_mode_sel[9]
*441 gpio_in[0]
*442 gpio_in[10]
*443 gpio_in[11]
*444 gpio_in[12]
*445 gpio_in[13]
*446 gpio_in[14]
*447 gpio_in[15]
*448 gpio_in[16]
*449 gpio_in[17]
*450 gpio_in[18]
*451 gpio_in[19]
*452 gpio_in[1]
*453 gpio_in[20]
*454 gpio_in[21]
*455 gpio_in[22]
*456 gpio_in[23]
*457 gpio_in[24]
*458 gpio_in[25]
*459 gpio_in[26]
*460 gpio_in[27]
*461 gpio_in[28]
*462 gpio_in[29]
*463 gpio_in[2]
*464 gpio_in[30]
*465 gpio_in[31]
*466 gpio_in[32]
*467 gpio_in[33]
*468 gpio_in[34]
*469 gpio_in[35]
*470 gpio_in[36]
*471 gpio_in[37]
*472 gpio_in[38]
*473 gpio_in[39]
*474 gpio_in[3]
*475 gpio_in[40]
*476 gpio_in[41]
*477 gpio_in[42]
*478 gpio_in[43]
*479 gpio_in[4]
*480 gpio_in[5]
*481 gpio_in[6]
*482 gpio_in[7]
*483 gpio_in[8]
*484 gpio_in[9]
*485 gpio_in_h[0]
*486 gpio_in_h[10]
*487 gpio_in_h[11]
*488 gpio_in_h[12]
*489 gpio_in_h[13]
*490 gpio_in_h[14]
*491 gpio_in_h[15]
*492 gpio_in_h[16]
*493 gpio_in_h[17]
*494 gpio_in_h[18]
*495 gpio_in_h[19]
*496 gpio_in_h[1]
*497 gpio_in_h[20]
*498 gpio_in_h[21]
*499 gpio_in_h[22]
*500 gpio_in_h[23]
*501 gpio_in_h[24]
*502 gpio_in_h[25]
*503 gpio_in_h[26]
*504 gpio_in_h[27]
*505 gpio_in_h[28]
*506 gpio_in_h[29]
*507 gpio_in_h[2]
*508 gpio_in_h[30]
*509 gpio_in_h[31]
*510 gpio_in_h[32]
*511 gpio_in_h[33]
*512 gpio_in_h[34]
*513 gpio_in_h[35]
*514 gpio_in_h[36]
*515 gpio_in_h[37]
*516 gpio_in_h[38]
*517 gpio_in_h[39]
*518 gpio_in_h[3]
*519 gpio_in_h[40]
*520 gpio_in_h[41]
*521 gpio_in_h[42]
*522 gpio_in_h[43]
*523 gpio_in_h[4]
*524 gpio_in_h[5]
*525 gpio_in_h[6]
*526 gpio_in_h[7]
*527 gpio_in_h[8]
*528 gpio_in_h[9]
*529 gpio_inp_dis[0]
*530 gpio_inp_dis[10]
*531 gpio_inp_dis[11]
*532 gpio_inp_dis[12]
*533 gpio_inp_dis[13]
*534 gpio_inp_dis[14]
*535 gpio_inp_dis[15]
*536 gpio_inp_dis[16]
*537 gpio_inp_dis[17]
*538 gpio_inp_dis[18]
*539 gpio_inp_dis[19]
*540 gpio_inp_dis[1]
*541 gpio_inp_dis[20]
*542 gpio_inp_dis[21]
*543 gpio_inp_dis[22]
*544 gpio_inp_dis[23]
*545 gpio_inp_dis[24]
*546 gpio_inp_dis[25]
*547 gpio_inp_dis[26]
*548 gpio_inp_dis[27]
*549 gpio_inp_dis[28]
*550 gpio_inp_dis[29]
*551 gpio_inp_dis[2]
*552 gpio_inp_dis[30]
*553 gpio_inp_dis[31]
*554 gpio_inp_dis[32]
*555 gpio_inp_dis[33]
*556 gpio_inp_dis[34]
*557 gpio_inp_dis[35]
*558 gpio_inp_dis[36]
*559 gpio_inp_dis[37]
*560 gpio_inp_dis[38]
*561 gpio_inp_dis[39]
*562 gpio_inp_dis[3]
*563 gpio_inp_dis[40]
*564 gpio_inp_dis[41]
*565 gpio_inp_dis[42]
*566 gpio_inp_dis[43]
*567 gpio_inp_dis[4]
*568 gpio_inp_dis[5]
*569 gpio_inp_dis[6]
*570 gpio_inp_dis[7]
*571 gpio_inp_dis[8]
*572 gpio_inp_dis[9]
*573 gpio_loopback_one[0]
*574 gpio_loopback_one[10]
*575 gpio_loopback_one[11]
*576 gpio_loopback_one[12]
*577 gpio_loopback_one[13]
*578 gpio_loopback_one[14]
*579 gpio_loopback_one[15]
*580 gpio_loopback_one[16]
*581 gpio_loopback_one[17]
*582 gpio_loopback_one[18]
*583 gpio_loopback_one[19]
*584 gpio_loopback_one[1]
*585 gpio_loopback_one[20]
*586 gpio_loopback_one[21]
*587 gpio_loopback_one[22]
*588 gpio_loopback_one[23]
*589 gpio_loopback_one[24]
*590 gpio_loopback_one[25]
*591 gpio_loopback_one[26]
*592 gpio_loopback_one[27]
*593 gpio_loopback_one[28]
*594 gpio_loopback_one[29]
*595 gpio_loopback_one[2]
*596 gpio_loopback_one[30]
*597 gpio_loopback_one[31]
*598 gpio_loopback_one[32]
*599 gpio_loopback_one[33]
*600 gpio_loopback_one[34]
*601 gpio_loopback_one[35]
*602 gpio_loopback_one[36]
*603 gpio_loopback_one[37]
*604 gpio_loopback_one[38]
*605 gpio_loopback_one[39]
*606 gpio_loopback_one[3]
*607 gpio_loopback_one[40]
*608 gpio_loopback_one[41]
*609 gpio_loopback_one[42]
*610 gpio_loopback_one[43]
*611 gpio_loopback_one[4]
*612 gpio_loopback_one[5]
*613 gpio_loopback_one[6]
*614 gpio_loopback_one[7]
*615 gpio_loopback_one[8]
*616 gpio_loopback_one[9]
*617 gpio_loopback_zero[0]
*618 gpio_loopback_zero[10]
*619 gpio_loopback_zero[11]
*620 gpio_loopback_zero[12]
*621 gpio_loopback_zero[13]
*622 gpio_loopback_zero[14]
*623 gpio_loopback_zero[15]
*624 gpio_loopback_zero[16]
*625 gpio_loopback_zero[17]
*626 gpio_loopback_zero[18]
*627 gpio_loopback_zero[19]
*628 gpio_loopback_zero[1]
*629 gpio_loopback_zero[20]
*630 gpio_loopback_zero[21]
*631 gpio_loopback_zero[22]
*632 gpio_loopback_zero[23]
*633 gpio_loopback_zero[24]
*634 gpio_loopback_zero[25]
*635 gpio_loopback_zero[26]
*636 gpio_loopback_zero[27]
*637 gpio_loopback_zero[28]
*638 gpio_loopback_zero[29]
*639 gpio_loopback_zero[2]
*640 gpio_loopback_zero[30]
*641 gpio_loopback_zero[31]
*642 gpio_loopback_zero[32]
*643 gpio_loopback_zero[33]
*644 gpio_loopback_zero[34]
*645 gpio_loopback_zero[35]
*646 gpio_loopback_zero[36]
*647 gpio_loopback_zero[37]
*648 gpio_loopback_zero[38]
*649 gpio_loopback_zero[39]
*650 gpio_loopback_zero[3]
*651 gpio_loopback_zero[40]
*652 gpio_loopback_zero[41]
*653 gpio_loopback_zero[42]
*654 gpio_loopback_zero[43]
*655 gpio_loopback_zero[4]
*656 gpio_loopback_zero[5]
*657 gpio_loopback_zero[6]
*658 gpio_loopback_zero[7]
*659 gpio_loopback_zero[8]
*660 gpio_loopback_zero[9]
*661 gpio_oeb[0]
*662 gpio_oeb[10]
*663 gpio_oeb[11]
*664 gpio_oeb[12]
*665 gpio_oeb[13]
*666 gpio_oeb[14]
*667 gpio_oeb[15]
*668 gpio_oeb[16]
*669 gpio_oeb[17]
*670 gpio_oeb[18]
*671 gpio_oeb[19]
*672 gpio_oeb[1]
*673 gpio_oeb[20]
*674 gpio_oeb[21]
*675 gpio_oeb[22]
*676 gpio_oeb[23]
*677 gpio_oeb[24]
*678 gpio_oeb[25]
*679 gpio_oeb[26]
*680 gpio_oeb[27]
*681 gpio_oeb[28]
*682 gpio_oeb[29]
*683 gpio_oeb[2]
*684 gpio_oeb[30]
*685 gpio_oeb[31]
*686 gpio_oeb[32]
*687 gpio_oeb[33]
*688 gpio_oeb[34]
*689 gpio_oeb[35]
*690 gpio_oeb[36]
*691 gpio_oeb[37]
*692 gpio_oeb[38]
*693 gpio_oeb[39]
*694 gpio_oeb[3]
*695 gpio_oeb[40]
*696 gpio_oeb[41]
*697 gpio_oeb[42]
*698 gpio_oeb[43]
*699 gpio_oeb[4]
*700 gpio_oeb[5]
*701 gpio_oeb[6]
*702 gpio_oeb[7]
*703 gpio_oeb[8]
*704 gpio_oeb[9]
*705 gpio_out[0]
*706 gpio_out[10]
*707 gpio_out[11]
*708 gpio_out[12]
*709 gpio_out[13]
*710 gpio_out[14]
*711 gpio_out[15]
*712 gpio_out[16]
*713 gpio_out[17]
*714 gpio_out[18]
*715 gpio_out[19]
*716 gpio_out[1]
*717 gpio_out[20]
*718 gpio_out[21]
*719 gpio_out[22]
*720 gpio_out[23]
*721 gpio_out[24]
*722 gpio_out[25]
*723 gpio_out[26]
*724 gpio_out[27]
*725 gpio_out[28]
*726 gpio_out[29]
*727 gpio_out[2]
*728 gpio_out[30]
*729 gpio_out[31]
*730 gpio_out[32]
*731 gpio_out[33]
*732 gpio_out[34]
*733 gpio_out[35]
*734 gpio_out[36]
*735 gpio_out[37]
*736 gpio_out[38]
*737 gpio_out[39]
*738 gpio_out[3]
*739 gpio_out[40]
*740 gpio_out[41]
*741 gpio_out[42]
*742 gpio_out[43]
*743 gpio_out[4]
*744 gpio_out[5]
*745 gpio_out[6]
*746 gpio_out[7]
*747 gpio_out[8]
*748 gpio_out[9]
*749 gpio_slow_sel[0]
*750 gpio_slow_sel[10]
*751 gpio_slow_sel[11]
*752 gpio_slow_sel[12]
*753 gpio_slow_sel[13]
*754 gpio_slow_sel[14]
*755 gpio_slow_sel[15]
*756 gpio_slow_sel[16]
*757 gpio_slow_sel[17]
*758 gpio_slow_sel[18]
*759 gpio_slow_sel[19]
*760 gpio_slow_sel[1]
*761 gpio_slow_sel[20]
*762 gpio_slow_sel[21]
*763 gpio_slow_sel[22]
*764 gpio_slow_sel[23]
*765 gpio_slow_sel[24]
*766 gpio_slow_sel[25]
*767 gpio_slow_sel[26]
*768 gpio_slow_sel[27]
*769 gpio_slow_sel[28]
*770 gpio_slow_sel[29]
*771 gpio_slow_sel[2]
*772 gpio_slow_sel[30]
*773 gpio_slow_sel[31]
*774 gpio_slow_sel[32]
*775 gpio_slow_sel[33]
*776 gpio_slow_sel[34]
*777 gpio_slow_sel[35]
*778 gpio_slow_sel[36]
*779 gpio_slow_sel[37]
*780 gpio_slow_sel[38]
*781 gpio_slow_sel[39]
*782 gpio_slow_sel[3]
*783 gpio_slow_sel[40]
*784 gpio_slow_sel[41]
*785 gpio_slow_sel[42]
*786 gpio_slow_sel[43]
*787 gpio_slow_sel[4]
*788 gpio_slow_sel[5]
*789 gpio_slow_sel[6]
*790 gpio_slow_sel[7]
*791 gpio_slow_sel[8]
*792 gpio_slow_sel[9]
*793 gpio_vtrip_sel[0]
*794 gpio_vtrip_sel[10]
*795 gpio_vtrip_sel[11]
*796 gpio_vtrip_sel[12]
*797 gpio_vtrip_sel[13]
*798 gpio_vtrip_sel[14]
*799 gpio_vtrip_sel[15]
*800 gpio_vtrip_sel[16]
*801 gpio_vtrip_sel[17]
*802 gpio_vtrip_sel[18]
*803 gpio_vtrip_sel[19]
*804 gpio_vtrip_sel[1]
*805 gpio_vtrip_sel[20]
*806 gpio_vtrip_sel[21]
*807 gpio_vtrip_sel[22]
*808 gpio_vtrip_sel[23]
*809 gpio_vtrip_sel[24]
*810 gpio_vtrip_sel[25]
*811 gpio_vtrip_sel[26]
*812 gpio_vtrip_sel[27]
*813 gpio_vtrip_sel[28]
*814 gpio_vtrip_sel[29]
*815 gpio_vtrip_sel[2]
*816 gpio_vtrip_sel[30]
*817 gpio_vtrip_sel[31]
*818 gpio_vtrip_sel[32]
*819 gpio_vtrip_sel[33]
*820 gpio_vtrip_sel[34]
*821 gpio_vtrip_sel[35]
*822 gpio_vtrip_sel[36]
*823 gpio_vtrip_sel[37]
*824 gpio_vtrip_sel[38]
*825 gpio_vtrip_sel[39]
*826 gpio_vtrip_sel[3]
*827 gpio_vtrip_sel[40]
*828 gpio_vtrip_sel[41]
*829 gpio_vtrip_sel[42]
*830 gpio_vtrip_sel[43]
*831 gpio_vtrip_sel[4]
*832 gpio_vtrip_sel[5]
*833 gpio_vtrip_sel[6]
*834 gpio_vtrip_sel[7]
*835 gpio_vtrip_sel[8]
*836 gpio_vtrip_sel[9]
*837 mask_rev[0]
*838 mask_rev[10]
*839 mask_rev[11]
*840 mask_rev[12]
*841 mask_rev[13]
*842 mask_rev[14]
*843 mask_rev[15]
*844 mask_rev[16]
*845 mask_rev[17]
*846 mask_rev[18]
*847 mask_rev[19]
*848 mask_rev[1]
*849 mask_rev[20]
*850 mask_rev[21]
*851 mask_rev[22]
*852 mask_rev[23]
*853 mask_rev[24]
*854 mask_rev[25]
*855 mask_rev[26]
*856 mask_rev[27]
*857 mask_rev[28]
*858 mask_rev[29]
*859 mask_rev[2]
*860 mask_rev[30]
*861 mask_rev[31]
*862 mask_rev[3]
*863 mask_rev[4]
*864 mask_rev[5]
*865 mask_rev[6]
*866 mask_rev[7]
*867 mask_rev[8]
*868 mask_rev[9]
*869 por_l
*870 porb_h
*871 porb_l
*872 resetb_h
*873 resetb_l
*874 mprj

*PORTS
analog_io[0] I
analog_io[10] I
analog_io[11] I
analog_io[12] I
analog_io[13] I
analog_io[14] I
analog_io[15] I
analog_io[16] I
analog_io[17] I
analog_io[18] I
analog_io[19] I
analog_io[1] I
analog_io[20] I
analog_io[21] I
analog_io[22] I
analog_io[23] I
analog_io[24] I
analog_io[25] I
analog_io[26] I
analog_io[27] I
analog_io[28] I
analog_io[29] I
analog_io[2] I
analog_io[30] I
analog_io[31] I
analog_io[32] I
analog_io[33] I
analog_io[34] I
analog_io[35] I
analog_io[36] I
analog_io[37] I
analog_io[38] I
analog_io[39] I
analog_io[3] I
analog_io[40] I
analog_io[41] I
analog_io[42] I
analog_io[43] I
analog_io[4] I
analog_io[5] I
analog_io[6] I
analog_io[7] I
analog_io[8] I
analog_io[9] I
analog_noesd_io[0] I
analog_noesd_io[10] I
analog_noesd_io[11] I
analog_noesd_io[12] I
analog_noesd_io[13] I
analog_noesd_io[14] I
analog_noesd_io[15] I
analog_noesd_io[16] I
analog_noesd_io[17] I
analog_noesd_io[18] I
analog_noesd_io[19] I
analog_noesd_io[1] I
analog_noesd_io[20] I
analog_noesd_io[21] I
analog_noesd_io[22] I
analog_noesd_io[23] I
analog_noesd_io[24] I
analog_noesd_io[25] I
analog_noesd_io[26] I
analog_noesd_io[27] I
analog_noesd_io[28] I
analog_noesd_io[29] I
analog_noesd_io[2] I
analog_noesd_io[30] I
analog_noesd_io[31] I
analog_noesd_io[32] I
analog_noesd_io[33] I
analog_noesd_io[34] I
analog_noesd_io[35] I
analog_noesd_io[36] I
analog_noesd_io[37] I
analog_noesd_io[38] I
analog_noesd_io[39] I
analog_noesd_io[3] I
analog_noesd_io[40] I
analog_noesd_io[41] I
analog_noesd_io[42] I
analog_noesd_io[43] I
analog_noesd_io[4] I
analog_noesd_io[5] I
analog_noesd_io[6] I
analog_noesd_io[7] I
analog_noesd_io[8] I
analog_noesd_io[9] I
gpio_analog_en[0] O
gpio_analog_en[10] O
gpio_analog_en[11] O
gpio_analog_en[12] O
gpio_analog_en[13] O
gpio_analog_en[14] O
gpio_analog_en[15] O
gpio_analog_en[16] O
gpio_analog_en[17] O
gpio_analog_en[18] O
gpio_analog_en[19] O
gpio_analog_en[1] O
gpio_analog_en[20] O
gpio_analog_en[21] O
gpio_analog_en[22] O
gpio_analog_en[23] O
gpio_analog_en[24] O
gpio_analog_en[25] O
gpio_analog_en[26] O
gpio_analog_en[27] O
gpio_analog_en[28] O
gpio_analog_en[29] O
gpio_analog_en[2] O
gpio_analog_en[30] O
gpio_analog_en[31] O
gpio_analog_en[32] O
gpio_analog_en[33] O
gpio_analog_en[34] O
gpio_analog_en[35] O
gpio_analog_en[36] O
gpio_analog_en[37] O
gpio_analog_en[38] O
gpio_analog_en[39] O
gpio_analog_en[3] O
gpio_analog_en[40] O
gpio_analog_en[41] O
gpio_analog_en[42] O
gpio_analog_en[43] O
gpio_analog_en[4] O
gpio_analog_en[5] O
gpio_analog_en[6] O
gpio_analog_en[7] O
gpio_analog_en[8] O
gpio_analog_en[9] O
gpio_analog_pol[0] O
gpio_analog_pol[10] O
gpio_analog_pol[11] O
gpio_analog_pol[12] O
gpio_analog_pol[13] O
gpio_analog_pol[14] O
gpio_analog_pol[15] O
gpio_analog_pol[16] O
gpio_analog_pol[17] O
gpio_analog_pol[18] O
gpio_analog_pol[19] O
gpio_analog_pol[1] O
gpio_analog_pol[20] O
gpio_analog_pol[21] O
gpio_analog_pol[22] O
gpio_analog_pol[23] O
gpio_analog_pol[24] O
gpio_analog_pol[25] O
gpio_analog_pol[26] O
gpio_analog_pol[27] O
gpio_analog_pol[28] O
gpio_analog_pol[29] O
gpio_analog_pol[2] O
gpio_analog_pol[30] O
gpio_analog_pol[31] O
gpio_analog_pol[32] O
gpio_analog_pol[33] O
gpio_analog_pol[34] O
gpio_analog_pol[35] O
gpio_analog_pol[36] O
gpio_analog_pol[37] O
gpio_analog_pol[38] O
gpio_analog_pol[39] O
gpio_analog_pol[3] O
gpio_analog_pol[40] O
gpio_analog_pol[41] O
gpio_analog_pol[42] O
gpio_analog_pol[43] O
gpio_analog_pol[4] O
gpio_analog_pol[5] O
gpio_analog_pol[6] O
gpio_analog_pol[7] O
gpio_analog_pol[8] O
gpio_analog_pol[9] O
gpio_analog_sel[0] O
gpio_analog_sel[10] O
gpio_analog_sel[11] O
gpio_analog_sel[12] O
gpio_analog_sel[13] O
gpio_analog_sel[14] O
gpio_analog_sel[15] O
gpio_analog_sel[16] O
gpio_analog_sel[17] O
gpio_analog_sel[18] O
gpio_analog_sel[19] O
gpio_analog_sel[1] O
gpio_analog_sel[20] O
gpio_analog_sel[21] O
gpio_analog_sel[22] O
gpio_analog_sel[23] O
gpio_analog_sel[24] O
gpio_analog_sel[25] O
gpio_analog_sel[26] O
gpio_analog_sel[27] O
gpio_analog_sel[28] O
gpio_analog_sel[29] O
gpio_analog_sel[2] O
gpio_analog_sel[30] O
gpio_analog_sel[31] O
gpio_analog_sel[32] O
gpio_analog_sel[33] O
gpio_analog_sel[34] O
gpio_analog_sel[35] O
gpio_analog_sel[36] O
gpio_analog_sel[37] O
gpio_analog_sel[38] O
gpio_analog_sel[39] O
gpio_analog_sel[3] O
gpio_analog_sel[40] O
gpio_analog_sel[41] O
gpio_analog_sel[42] O
gpio_analog_sel[43] O
gpio_analog_sel[4] O
gpio_analog_sel[5] O
gpio_analog_sel[6] O
gpio_analog_sel[7] O
gpio_analog_sel[8] O
gpio_analog_sel[9] O
gpio_dm0[0] O
gpio_dm0[10] O
gpio_dm0[11] O
gpio_dm0[12] O
gpio_dm0[13] O
gpio_dm0[14] O
gpio_dm0[15] O
gpio_dm0[16] O
gpio_dm0[17] O
gpio_dm0[18] O
gpio_dm0[19] O
gpio_dm0[1] O
gpio_dm0[20] O
gpio_dm0[21] O
gpio_dm0[22] O
gpio_dm0[23] O
gpio_dm0[24] O
gpio_dm0[25] O
gpio_dm0[26] O
gpio_dm0[27] O
gpio_dm0[28] O
gpio_dm0[29] O
gpio_dm0[2] O
gpio_dm0[30] O
gpio_dm0[31] O
gpio_dm0[32] O
gpio_dm0[33] O
gpio_dm0[34] O
gpio_dm0[35] O
gpio_dm0[36] O
gpio_dm0[37] O
gpio_dm0[38] O
gpio_dm0[39] O
gpio_dm0[3] O
gpio_dm0[40] O
gpio_dm0[41] O
gpio_dm0[42] O
gpio_dm0[43] O
gpio_dm0[4] O
gpio_dm0[5] O
gpio_dm0[6] O
gpio_dm0[7] O
gpio_dm0[8] O
gpio_dm0[9] O
gpio_dm1[0] O
gpio_dm1[10] O
gpio_dm1[11] O
gpio_dm1[12] O
gpio_dm1[13] O
gpio_dm1[14] O
gpio_dm1[15] O
gpio_dm1[16] O
gpio_dm1[17] O
gpio_dm1[18] O
gpio_dm1[19] O
gpio_dm1[1] O
gpio_dm1[20] O
gpio_dm1[21] O
gpio_dm1[22] O
gpio_dm1[23] O
gpio_dm1[24] O
gpio_dm1[25] O
gpio_dm1[26] O
gpio_dm1[27] O
gpio_dm1[28] O
gpio_dm1[29] O
gpio_dm1[2] O
gpio_dm1[30] O
gpio_dm1[31] O
gpio_dm1[32] O
gpio_dm1[33] O
gpio_dm1[34] O
gpio_dm1[35] O
gpio_dm1[36] O
gpio_dm1[37] O
gpio_dm1[38] O
gpio_dm1[39] O
gpio_dm1[3] O
gpio_dm1[40] O
gpio_dm1[41] O
gpio_dm1[42] O
gpio_dm1[43] O
gpio_dm1[4] O
gpio_dm1[5] O
gpio_dm1[6] O
gpio_dm1[7] O
gpio_dm1[8] O
gpio_dm1[9] O
gpio_dm2[0] O
gpio_dm2[10] O
gpio_dm2[11] O
gpio_dm2[12] O
gpio_dm2[13] O
gpio_dm2[14] O
gpio_dm2[15] O
gpio_dm2[16] O
gpio_dm2[17] O
gpio_dm2[18] O
gpio_dm2[19] O
gpio_dm2[1] O
gpio_dm2[20] O
gpio_dm2[21] O
gpio_dm2[22] O
gpio_dm2[23] O
gpio_dm2[24] O
gpio_dm2[25] O
gpio_dm2[26] O
gpio_dm2[27] O
gpio_dm2[28] O
gpio_dm2[29] O
gpio_dm2[2] O
gpio_dm2[30] O
gpio_dm2[31] O
gpio_dm2[32] O
gpio_dm2[33] O
gpio_dm2[34] O
gpio_dm2[35] O
gpio_dm2[36] O
gpio_dm2[37] O
gpio_dm2[38] O
gpio_dm2[39] O
gpio_dm2[3] O
gpio_dm2[40] O
gpio_dm2[41] O
gpio_dm2[42] O
gpio_dm2[43] O
gpio_dm2[4] O
gpio_dm2[5] O
gpio_dm2[6] O
gpio_dm2[7] O
gpio_dm2[8] O
gpio_dm2[9] O
gpio_holdover[0] O
gpio_holdover[10] O
gpio_holdover[11] O
gpio_holdover[12] O
gpio_holdover[13] O
gpio_holdover[14] O
gpio_holdover[15] O
gpio_holdover[16] O
gpio_holdover[17] O
gpio_holdover[18] O
gpio_holdover[19] O
gpio_holdover[1] O
gpio_holdover[20] O
gpio_holdover[21] O
gpio_holdover[22] O
gpio_holdover[23] O
gpio_holdover[24] O
gpio_holdover[25] O
gpio_holdover[26] O
gpio_holdover[27] O
gpio_holdover[28] O
gpio_holdover[29] O
gpio_holdover[2] O
gpio_holdover[30] O
gpio_holdover[31] O
gpio_holdover[32] O
gpio_holdover[33] O
gpio_holdover[34] O
gpio_holdover[35] O
gpio_holdover[36] O
gpio_holdover[37] O
gpio_holdover[38] O
gpio_holdover[39] O
gpio_holdover[3] O
gpio_holdover[40] O
gpio_holdover[41] O
gpio_holdover[42] O
gpio_holdover[43] O
gpio_holdover[4] O
gpio_holdover[5] O
gpio_holdover[6] O
gpio_holdover[7] O
gpio_holdover[8] O
gpio_holdover[9] O
gpio_ib_mode_sel[0] O
gpio_ib_mode_sel[10] O
gpio_ib_mode_sel[11] O
gpio_ib_mode_sel[12] O
gpio_ib_mode_sel[13] O
gpio_ib_mode_sel[14] O
gpio_ib_mode_sel[15] O
gpio_ib_mode_sel[16] O
gpio_ib_mode_sel[17] O
gpio_ib_mode_sel[18] O
gpio_ib_mode_sel[19] O
gpio_ib_mode_sel[1] O
gpio_ib_mode_sel[20] O
gpio_ib_mode_sel[21] O
gpio_ib_mode_sel[22] O
gpio_ib_mode_sel[23] O
gpio_ib_mode_sel[24] O
gpio_ib_mode_sel[25] O
gpio_ib_mode_sel[26] O
gpio_ib_mode_sel[27] O
gpio_ib_mode_sel[28] O
gpio_ib_mode_sel[29] O
gpio_ib_mode_sel[2] O
gpio_ib_mode_sel[30] O
gpio_ib_mode_sel[31] O
gpio_ib_mode_sel[32] O
gpio_ib_mode_sel[33] O
gpio_ib_mode_sel[34] O
gpio_ib_mode_sel[35] O
gpio_ib_mode_sel[36] O
gpio_ib_mode_sel[37] O
gpio_ib_mode_sel[38] O
gpio_ib_mode_sel[39] O
gpio_ib_mode_sel[3] O
gpio_ib_mode_sel[40] O
gpio_ib_mode_sel[41] O
gpio_ib_mode_sel[42] O
gpio_ib_mode_sel[43] O
gpio_ib_mode_sel[4] O
gpio_ib_mode_sel[5] O
gpio_ib_mode_sel[6] O
gpio_ib_mode_sel[7] O
gpio_ib_mode_sel[8] O
gpio_ib_mode_sel[9] O
gpio_in[0] I
gpio_in[10] I
gpio_in[11] I
gpio_in[12] I
gpio_in[13] I
gpio_in[14] I
gpio_in[15] I
gpio_in[16] I
gpio_in[17] I
gpio_in[18] I
gpio_in[19] I
gpio_in[1] I
gpio_in[20] I
gpio_in[21] I
gpio_in[22] I
gpio_in[23] I
gpio_in[24] I
gpio_in[25] I
gpio_in[26] I
gpio_in[27] I
gpio_in[28] I
gpio_in[29] I
gpio_in[2] I
gpio_in[30] I
gpio_in[31] I
gpio_in[32] I
gpio_in[33] I
gpio_in[34] I
gpio_in[35] I
gpio_in[36] I
gpio_in[37] I
gpio_in[38] I
gpio_in[39] I
gpio_in[3] I
gpio_in[40] I
gpio_in[41] I
gpio_in[42] I
gpio_in[43] I
gpio_in[4] I
gpio_in[5] I
gpio_in[6] I
gpio_in[7] I
gpio_in[8] I
gpio_in[9] I
gpio_in_h[0] I
gpio_in_h[10] I
gpio_in_h[11] I
gpio_in_h[12] I
gpio_in_h[13] I
gpio_in_h[14] I
gpio_in_h[15] I
gpio_in_h[16] I
gpio_in_h[17] I
gpio_in_h[18] I
gpio_in_h[19] I
gpio_in_h[1] I
gpio_in_h[20] I
gpio_in_h[21] I
gpio_in_h[22] I
gpio_in_h[23] I
gpio_in_h[24] I
gpio_in_h[25] I
gpio_in_h[26] I
gpio_in_h[27] I
gpio_in_h[28] I
gpio_in_h[29] I
gpio_in_h[2] I
gpio_in_h[30] I
gpio_in_h[31] I
gpio_in_h[32] I
gpio_in_h[33] I
gpio_in_h[34] I
gpio_in_h[35] I
gpio_in_h[36] I
gpio_in_h[37] I
gpio_in_h[38] I
gpio_in_h[39] I
gpio_in_h[3] I
gpio_in_h[40] I
gpio_in_h[41] I
gpio_in_h[42] I
gpio_in_h[43] I
gpio_in_h[4] I
gpio_in_h[5] I
gpio_in_h[6] I
gpio_in_h[7] I
gpio_in_h[8] I
gpio_in_h[9] I
gpio_inp_dis[0] O
gpio_inp_dis[10] O
gpio_inp_dis[11] O
gpio_inp_dis[12] O
gpio_inp_dis[13] O
gpio_inp_dis[14] O
gpio_inp_dis[15] O
gpio_inp_dis[16] O
gpio_inp_dis[17] O
gpio_inp_dis[18] O
gpio_inp_dis[19] O
gpio_inp_dis[1] O
gpio_inp_dis[20] O
gpio_inp_dis[21] O
gpio_inp_dis[22] O
gpio_inp_dis[23] O
gpio_inp_dis[24] O
gpio_inp_dis[25] O
gpio_inp_dis[26] O
gpio_inp_dis[27] O
gpio_inp_dis[28] O
gpio_inp_dis[29] O
gpio_inp_dis[2] O
gpio_inp_dis[30] O
gpio_inp_dis[31] O
gpio_inp_dis[32] O
gpio_inp_dis[33] O
gpio_inp_dis[34] O
gpio_inp_dis[35] O
gpio_inp_dis[36] O
gpio_inp_dis[37] O
gpio_inp_dis[38] O
gpio_inp_dis[39] O
gpio_inp_dis[3] O
gpio_inp_dis[40] O
gpio_inp_dis[41] O
gpio_inp_dis[42] O
gpio_inp_dis[43] O
gpio_inp_dis[4] O
gpio_inp_dis[5] O
gpio_inp_dis[6] O
gpio_inp_dis[7] O
gpio_inp_dis[8] O
gpio_inp_dis[9] O
gpio_loopback_one[0] I
gpio_loopback_one[10] I
gpio_loopback_one[11] I
gpio_loopback_one[12] I
gpio_loopback_one[13] I
gpio_loopback_one[14] I
gpio_loopback_one[15] I
gpio_loopback_one[16] I
gpio_loopback_one[17] I
gpio_loopback_one[18] I
gpio_loopback_one[19] I
gpio_loopback_one[1] I
gpio_loopback_one[20] I
gpio_loopback_one[21] I
gpio_loopback_one[22] I
gpio_loopback_one[23] I
gpio_loopback_one[24] I
gpio_loopback_one[25] I
gpio_loopback_one[26] I
gpio_loopback_one[27] I
gpio_loopback_one[28] I
gpio_loopback_one[29] I
gpio_loopback_one[2] I
gpio_loopback_one[30] I
gpio_loopback_one[31] I
gpio_loopback_one[32] I
gpio_loopback_one[33] I
gpio_loopback_one[34] I
gpio_loopback_one[35] I
gpio_loopback_one[36] I
gpio_loopback_one[37] I
gpio_loopback_one[38] I
gpio_loopback_one[39] I
gpio_loopback_one[3] I
gpio_loopback_one[40] I
gpio_loopback_one[41] I
gpio_loopback_one[42] I
gpio_loopback_one[43] I
gpio_loopback_one[4] I
gpio_loopback_one[5] I
gpio_loopback_one[6] I
gpio_loopback_one[7] I
gpio_loopback_one[8] I
gpio_loopback_one[9] I
gpio_loopback_zero[0] I
gpio_loopback_zero[10] I
gpio_loopback_zero[11] I
gpio_loopback_zero[12] I
gpio_loopback_zero[13] I
gpio_loopback_zero[14] I
gpio_loopback_zero[15] I
gpio_loopback_zero[16] I
gpio_loopback_zero[17] I
gpio_loopback_zero[18] I
gpio_loopback_zero[19] I
gpio_loopback_zero[1] I
gpio_loopback_zero[20] I
gpio_loopback_zero[21] I
gpio_loopback_zero[22] I
gpio_loopback_zero[23] I
gpio_loopback_zero[24] I
gpio_loopback_zero[25] I
gpio_loopback_zero[26] I
gpio_loopback_zero[27] I
gpio_loopback_zero[28] I
gpio_loopback_zero[29] I
gpio_loopback_zero[2] I
gpio_loopback_zero[30] I
gpio_loopback_zero[31] I
gpio_loopback_zero[32] I
gpio_loopback_zero[33] I
gpio_loopback_zero[34] I
gpio_loopback_zero[35] I
gpio_loopback_zero[36] I
gpio_loopback_zero[37] I
gpio_loopback_zero[38] I
gpio_loopback_zero[39] I
gpio_loopback_zero[3] I
gpio_loopback_zero[40] I
gpio_loopback_zero[41] I
gpio_loopback_zero[42] I
gpio_loopback_zero[43] I
gpio_loopback_zero[4] I
gpio_loopback_zero[5] I
gpio_loopback_zero[6] I
gpio_loopback_zero[7] I
gpio_loopback_zero[8] I
gpio_loopback_zero[9] I
gpio_oeb[0] O
gpio_oeb[10] O
gpio_oeb[11] O
gpio_oeb[12] O
gpio_oeb[13] O
gpio_oeb[14] O
gpio_oeb[15] O
gpio_oeb[16] O
gpio_oeb[17] O
gpio_oeb[18] O
gpio_oeb[19] O
gpio_oeb[1] O
gpio_oeb[20] O
gpio_oeb[21] O
gpio_oeb[22] O
gpio_oeb[23] O
gpio_oeb[24] O
gpio_oeb[25] O
gpio_oeb[26] O
gpio_oeb[27] O
gpio_oeb[28] O
gpio_oeb[29] O
gpio_oeb[2] O
gpio_oeb[30] O
gpio_oeb[31] O
gpio_oeb[32] O
gpio_oeb[33] O
gpio_oeb[34] O
gpio_oeb[35] O
gpio_oeb[36] O
gpio_oeb[37] O
gpio_oeb[38] O
gpio_oeb[39] O
gpio_oeb[3] O
gpio_oeb[40] O
gpio_oeb[41] O
gpio_oeb[42] O
gpio_oeb[43] O
gpio_oeb[4] O
gpio_oeb[5] O
gpio_oeb[6] O
gpio_oeb[7] O
gpio_oeb[8] O
gpio_oeb[9] O
gpio_out[0] O
gpio_out[10] O
gpio_out[11] O
gpio_out[12] O
gpio_out[13] O
gpio_out[14] O
gpio_out[15] O
gpio_out[16] O
gpio_out[17] O
gpio_out[18] O
gpio_out[19] O
gpio_out[1] O
gpio_out[20] O
gpio_out[21] O
gpio_out[22] O
gpio_out[23] O
gpio_out[24] O
gpio_out[25] O
gpio_out[26] O
gpio_out[27] O
gpio_out[28] O
gpio_out[29] O
gpio_out[2] O
gpio_out[30] O
gpio_out[31] O
gpio_out[32] O
gpio_out[33] O
gpio_out[34] O
gpio_out[35] O
gpio_out[36] O
gpio_out[37] O
gpio_out[38] O
gpio_out[39] O
gpio_out[3] O
gpio_out[40] O
gpio_out[41] O
gpio_out[42] O
gpio_out[43] O
gpio_out[4] O
gpio_out[5] O
gpio_out[6] O
gpio_out[7] O
gpio_out[8] O
gpio_out[9] O
gpio_slow_sel[0] O
gpio_slow_sel[10] O
gpio_slow_sel[11] O
gpio_slow_sel[12] O
gpio_slow_sel[13] O
gpio_slow_sel[14] O
gpio_slow_sel[15] O
gpio_slow_sel[16] O
gpio_slow_sel[17] O
gpio_slow_sel[18] O
gpio_slow_sel[19] O
gpio_slow_sel[1] O
gpio_slow_sel[20] O
gpio_slow_sel[21] O
gpio_slow_sel[22] O
gpio_slow_sel[23] O
gpio_slow_sel[24] O
gpio_slow_sel[25] O
gpio_slow_sel[26] O
gpio_slow_sel[27] O
gpio_slow_sel[28] O
gpio_slow_sel[29] O
gpio_slow_sel[2] O
gpio_slow_sel[30] O
gpio_slow_sel[31] O
gpio_slow_sel[32] O
gpio_slow_sel[33] O
gpio_slow_sel[34] O
gpio_slow_sel[35] O
gpio_slow_sel[36] O
gpio_slow_sel[37] O
gpio_slow_sel[38] O
gpio_slow_sel[39] O
gpio_slow_sel[3] O
gpio_slow_sel[40] O
gpio_slow_sel[41] O
gpio_slow_sel[42] O
gpio_slow_sel[43] O
gpio_slow_sel[4] O
gpio_slow_sel[5] O
gpio_slow_sel[6] O
gpio_slow_sel[7] O
gpio_slow_sel[8] O
gpio_slow_sel[9] O
gpio_vtrip_sel[0] O
gpio_vtrip_sel[10] O
gpio_vtrip_sel[11] O
gpio_vtrip_sel[12] O
gpio_vtrip_sel[13] O
gpio_vtrip_sel[14] O
gpio_vtrip_sel[15] O
gpio_vtrip_sel[16] O
gpio_vtrip_sel[17] O
gpio_vtrip_sel[18] O
gpio_vtrip_sel[19] O
gpio_vtrip_sel[1] O
gpio_vtrip_sel[20] O
gpio_vtrip_sel[21] O
gpio_vtrip_sel[22] O
gpio_vtrip_sel[23] O
gpio_vtrip_sel[24] O
gpio_vtrip_sel[25] O
gpio_vtrip_sel[26] O
gpio_vtrip_sel[27] O
gpio_vtrip_sel[28] O
gpio_vtrip_sel[29] O
gpio_vtrip_sel[2] O
gpio_vtrip_sel[30] O
gpio_vtrip_sel[31] O
gpio_vtrip_sel[32] O
gpio_vtrip_sel[33] O
gpio_vtrip_sel[34] O
gpio_vtrip_sel[35] O
gpio_vtrip_sel[36] O
gpio_vtrip_sel[37] O
gpio_vtrip_sel[38] O
gpio_vtrip_sel[39] O
gpio_vtrip_sel[3] O
gpio_vtrip_sel[40] O
gpio_vtrip_sel[41] O
gpio_vtrip_sel[42] O
gpio_vtrip_sel[43] O
gpio_vtrip_sel[4] O
gpio_vtrip_sel[5] O
gpio_vtrip_sel[6] O
gpio_vtrip_sel[7] O
gpio_vtrip_sel[8] O
gpio_vtrip_sel[9] O
mask_rev[0] I
mask_rev[10] I
mask_rev[11] I
mask_rev[12] I
mask_rev[13] I
mask_rev[14] I
mask_rev[15] I
mask_rev[16] I
mask_rev[17] I
mask_rev[18] I
mask_rev[19] I
mask_rev[1] I
mask_rev[20] I
mask_rev[21] I
mask_rev[22] I
mask_rev[23] I
mask_rev[24] I
mask_rev[25] I
mask_rev[26] I
mask_rev[27] I
mask_rev[28] I
mask_rev[29] I
mask_rev[2] I
mask_rev[30] I
mask_rev[31] I
mask_rev[3] I
mask_rev[4] I
mask_rev[5] I
mask_rev[6] I
mask_rev[7] I
mask_rev[8] I
mask_rev[9] I
por_l I
porb_h I
porb_l I
resetb_h I
resetb_l I

*D_NET *89 0.429237
*CONN
*P gpio_analog_en[0] O
*I *874:gpio_analog_en[0] O *D counter_gpio_config_example
*CAP
1 gpio_analog_en[0] 0.00425335
2 *874:gpio_analog_en[0] 0.00021546
3 *89:13 0.0297063
4 *89:11 0.025453
5 *89:9 0.149207
6 *89:7 0.149422
7 gpio_analog_en[0] gpio_dm1[0] 3.4377e-06
8 gpio_analog_en[0] *221:17 0.0014912
9 *89:7 *136:7 0
10 *89:7 *192:7 3.37768e-05
11 *89:7 *381:11 3.41368e-05
12 *89:9 *136:9 0
13 *89:9 *297:9 0
14 *89:9 *381:11 0.000129681
15 *89:13 gpio_analog_pol[1] 0.00055741
16 *89:13 *188:13 0.0280755
17 *89:13 *348:13 0.0196599
18 *89:13 *483:11 0.00967927
19 *89:13 *484:11 0.0113163
*RES
1 *874:gpio_analog_en[0] *89:7 0.662667 
2 *89:7 *89:9 431.965 
3 *89:9 *89:11 8 
4 *89:11 *89:13 114.423 
5 *89:13 gpio_analog_en[0] 18.6055 
*END

*D_NET *90 0.582334
*CONN
*P gpio_analog_en[10] O
*I *874:gpio_analog_en[10] O *D counter_gpio_config_example
*CAP
1 gpio_analog_en[10] 0.00367786
2 *874:gpio_analog_en[10] 0.000223919
3 *90:17 0.0672122
4 *90:15 0.0635343
5 *90:13 0.138862
6 *90:11 0.138862
7 *90:9 0.083344
8 *90:7 0.0835679
9 gpio_analog_en[10] *222:17 0.000478409
10 *90:7 *146:11 0
11 *90:7 *182:11 2.96768e-05
12 *90:9 *146:11 0
13 *90:9 *182:11 0.00254097
14 *90:17 *222:17 0
15 *90:17 *266:21 0
*RES
1 *874:gpio_analog_en[10] *90:7 0.662667 
2 *90:7 *90:9 246.322 
3 *90:9 *90:11 8 
4 *90:11 *90:13 432.645 
5 *90:13 *90:15 8 
6 *90:15 *90:17 187.589 
7 *90:17 gpio_analog_en[10] 8.65107 
*END

*D_NET *91 1.07883
*CONN
*P gpio_analog_en[11] O
*I *874:gpio_analog_en[11] O *D counter_gpio_config_example
*CAP
1 gpio_analog_en[11] 0.00172954
2 *874:gpio_analog_en[11] 0.00251299
3 *91:21 0.134769
4 *91:19 0.133039
5 *91:17 0.0616729
6 *91:15 0.0618315
7 *91:9 0.0259133
8 *91:7 0.0282678
9 gpio_analog_en[11] gpio_dm0[11] 0.000556577
10 *91:7 *163:7 0.000402768
11 *91:7 *279:7 0.000401987
12 *91:9 *93:9 0
13 *91:9 *99:9 0.00564014
14 *91:9 *105:17 0.019718
15 *91:9 *115:9 0.00135293
16 *91:9 *116:9 0.0104734
17 *91:9 *122:15 0.00173734
18 *91:9 *123:9 0.000531907
19 *91:9 *244:9 0.00126872
20 *91:9 *283:9 0.00168389
21 *91:9 *309:9 0.0242805
22 *91:9 *779:18 0.0317399
23 *91:17 *105:17 0.0313987
24 *91:17 *115:9 0.00527222
25 *91:17 *283:9 0.0156592
26 *91:17 *402:9 0.185251
27 *91:17 *779:18 0.000878898
28 *91:21 gpio_dm0[11] 0.00038844
29 *91:21 *223:13 0.290462
30 *91:21 *267:17 0
*RES
1 *874:gpio_analog_en[11] *91:7 14.7256 
2 *91:7 *91:9 146.537 
3 *91:9 *91:15 16.2707 
4 *91:15 *91:17 2358.8 
5 *91:17 *91:19 8 
6 *91:19 *91:21 556.687 
7 *91:21 gpio_analog_en[11] 4.35027 
*END

*D_NET *92 0.775864
*CONN
*P gpio_analog_en[12] O
*I *874:gpio_analog_en[12] O *D counter_gpio_config_example
*CAP
1 gpio_analog_en[12] 0.0054451
2 *874:gpio_analog_en[12] 0.000174986
3 *92:13 0.153846
4 *92:11 0.148401
5 *92:9 0.144874
6 *92:7 0.145049
7 gpio_analog_en[12] *224:13 0.00112139
8 gpio_analog_en[12] *268:21 0.00374408
9 *92:7 *166:7 3.37536e-05
10 *92:7 *166:9 5.66735e-06
11 *92:7 *543:11 3.57358e-05
12 *92:9 *166:9 0.0040492
13 *92:9 *209:9 0
14 *92:9 *543:11 1.99504e-05
15 *92:13 *100:13 0
16 *92:13 *131:13 0
17 *92:13 *199:15 0.00156835
18 *92:13 *261:13 0.0197648
19 *92:13 *331:13 0.0282264
20 *92:13 *353:13 0.000851239
21 *92:13 *570:14 0.0700856
22 *92:13 *788:13 0.00171431
23 *92:13 *798:21 0.0468521
*RES
1 *874:gpio_analog_en[12] *92:7 0.662667 
2 *92:7 *92:9 426.642 
3 *92:9 *92:11 8 
4 *92:11 *92:13 552.597 
5 *92:13 gpio_analog_en[12] 24.1439 
*END

*D_NET *93 0.939078
*CONN
*P gpio_analog_en[13] O
*I *874:gpio_analog_en[13] O *D counter_gpio_config_example
*CAP
1 gpio_analog_en[13] 0.00383487
2 *874:gpio_analog_en[13] 0.0022125
3 *93:21 0.193091
4 *93:19 0.189256
5 *93:17 0.105307
6 *93:15 0.105488
7 *93:9 0.0115329
8 *93:7 0.0135648
9 gpio_analog_en[13] *225:13 0
10 *93:7 *371:7 0.000343591
11 *93:7 *426:7 0.000334848
12 *93:9 *244:9 0.0122459
13 *93:9 *309:9 0
14 *93:9 *426:9 0.0240998
15 *93:9 *778:13 0.00117946
16 *93:15 *122:15 0.000213165
17 *93:17 *105:9 0.0125886
18 *93:17 *127:9 0.00622166
19 *93:17 *127:19 2.33476e-05
20 *93:17 *133:9 0.00117946
21 *93:17 *180:9 0.228648
22 *93:17 *194:9 0
23 *93:17 *244:9 0.00923646
24 *93:17 *369:9 0
25 *93:17 *392:13 0.00187538
26 *93:17 *426:9 0.0001646
27 *93:17 *431:9 0.0164373
28 *93:17 *536:9 0
29 *93:17 *537:9 0
30 *93:21 *225:13 0
31 *93:21 *269:17 0
32 *91:9 *93:9 0
*RES
1 *874:gpio_analog_en[13] *93:7 13.8669 
2 *93:7 *93:9 59.2069 
3 *93:9 *93:15 16.4424 
4 *93:15 *93:17 3663.14 
5 *93:17 *93:19 8 
6 *93:19 *93:21 551.449 
7 *93:21 gpio_analog_en[13] 8.47933 
*END

*D_NET *94 0.829797
*CONN
*P gpio_analog_en[14] O
*I *874:gpio_analog_en[14] O *D counter_gpio_config_example
*CAP
1 gpio_analog_en[14] 0.000264865
2 *874:gpio_analog_en[14] 0.00561454
3 *94:17 0.143369
4 *94:15 0.143104
5 *94:13 0.173163
6 *94:11 0.178777
7 gpio_analog_en[14] gpio_dm0[14] 5.10692e-05
8 *94:11 *205:11 0
9 *94:11 *226:7 3.20311e-05
10 *94:11 *226:9 0.000221519
11 *94:11 *293:11 0.000148681
12 *94:11 *368:33 2.77108e-05
13 *94:11 *562:17 0.00133063
14 *94:13 *310:13 0.173075
15 *94:13 *408:13 0
16 *94:17 gpio_dm0[14] 0.000465339
17 *94:17 *226:19 0.0101532
18 *94:17 *270:17 0
*RES
1 *874:gpio_analog_en[14] *94:11 23.0746 
2 *94:11 *94:13 666.456 
3 *94:13 *94:15 8 
4 *94:15 *94:17 426.813 
5 *94:17 gpio_analog_en[14] 0.826 
*END

*D_NET *95 0.975071
*CONN
*P gpio_analog_en[15] O
*I *874:gpio_analog_en[15] O *D counter_gpio_config_example
*CAP
1 gpio_analog_en[15] 4.08588e-05
2 *874:gpio_analog_en[15] 0.00338233
3 *95:13 0.127125
4 *95:11 0.127084
5 *95:9 0.114047
6 *95:7 0.117429
7 gpio_analog_en[15] gpio_dm0[15] 0
8 *95:7 *122:15 0.000345481
9 *95:7 *536:7 0.000263807
10 *95:9 *96:9 0.338163
11 *95:9 *151:9 0
12 *95:9 *174:9 0.0223191
13 *95:9 *184:19 4.81033e-05
14 *95:9 *197:9 0.005406
15 *95:9 *249:9 0.00637035
16 *95:9 *272:19 0
17 *95:9 *274:9 2.02791e-05
18 *95:9 *283:17 0.00499265
19 *95:9 *325:9 0.0172025
20 *95:9 *470:11 0.0166331
21 *95:9 *821:13 0
22 *95:13 gpio_oeb[21] 0.00665533
23 *95:13 gpio_out[15] 0.00183995
24 *95:13 *99:13 0.00485099
25 *95:13 *102:13 0.0592577
26 *95:13 *449:11 0.000861414
27 *95:13 *454:11 0.00020868
28 *95:13 *718:23 0.000525115
*RES
1 *874:gpio_analog_en[15] *95:7 16.1424 
2 *95:7 *95:9 4329.39 
3 *95:9 *95:11 8 
4 *95:11 *95:13 525.088 
5 *95:13 gpio_analog_en[15] 8.77679 
*END

*D_NET *96 1.30088
*CONN
*P gpio_analog_en[16] O
*I *874:gpio_analog_en[16] O *D counter_gpio_config_example
*CAP
1 gpio_analog_en[16] 0.00109185
2 *874:gpio_analog_en[16] 0.00303546
3 *96:13 0.070828
4 *96:11 0.0697361
5 *96:9 0.0536926
6 *96:7 0.0567281
7 gpio_analog_en[16] gpio_dm0[16] 0
8 *96:7 *183:7 0
9 *96:7 *244:7 0.000354599
10 *96:7 *280:7 0.000478862
11 *96:9 *174:9 0.0283325
12 *96:9 *249:9 0.00139476
13 *96:9 *274:9 0.350547
14 *96:9 *283:17 0.0118288
15 *96:9 *325:9 0.00842384
16 *96:9 *470:11 0.00414709
17 *96:13 *184:21 0
18 *96:13 *272:21 0
19 *96:13 *316:15 0.219508
20 *96:13 *361:13 0.0825907
21 *95:9 *96:9 0.338163
*RES
1 *874:gpio_analog_en[16] *96:7 16.0565 
2 *96:7 *96:9 4464.79 
3 *96:9 *96:11 15 
4 *96:11 *96:13 2385.62 
5 *96:13 gpio_analog_en[16] 38.8421 
*END

*D_NET *97 0.60947
*CONN
*P gpio_analog_en[17] O
*I *874:gpio_analog_en[17] O *D counter_gpio_config_example
*CAP
1 gpio_analog_en[17] 0.00225648
2 *874:gpio_analog_en[17] 0.00579784
3 *97:19 0.00225648
4 *97:17 0.0837818
5 *97:15 0.0837818
6 *97:13 0.171345
7 *97:11 0.177143
8 gpio_analog_en[17] gpio_dm0[17] 0
9 gpio_analog_en[17] *449:15 0.00631086
10 *97:11 *109:11 0.000508052
11 *97:11 *255:7 3.37536e-05
12 *97:11 *255:9 0.000997148
13 *97:11 *727:29 0
14 *97:13 *124:13 0.0164889
15 *97:13 *263:13 0.0587688
16 *97:17 *98:17 0
17 *97:17 *451:9 0
*RES
1 *874:gpio_analog_en[17] *97:11 24.5611 
2 *97:11 *97:13 4037.81 
3 *97:13 *97:15 8 
4 *97:15 *97:17 245.978 
5 *97:17 *97:19 8 
6 *97:19 gpio_analog_en[17] 81.0654 
*END

*D_NET *98 0.565203
*CONN
*P gpio_analog_en[18] O
*I *874:gpio_analog_en[18] O *D counter_gpio_config_example
*CAP
1 gpio_analog_en[18] 0.00380257
2 *874:gpio_analog_en[18] 0.0087379
3 *98:19 0.00380257
4 *98:17 0.0533918
5 *98:15 0.0533918
6 *98:13 0.164316
7 *98:11 0.173054
8 gpio_analog_en[18] gpio_dm0[18] 0
9 gpio_analog_en[18] *450:13 0
10 *98:11 *146:11 0.00017798
11 *98:11 *290:11 0.000122517
12 *98:11 *318:9 0
13 *98:13 *258:13 0.0238994
14 *98:13 *401:13 0.0797265
15 *98:13 *430:15 0.000779669
16 *97:17 *98:17 0
*RES
1 *874:gpio_analog_en[18] *98:11 31.0011 
2 *98:11 *98:13 3914.56 
3 *98:13 *98:15 8 
4 *98:15 *98:17 156.505 
5 *98:17 *98:19 8 
6 *98:19 gpio_analog_en[18] 88.1082 
*END

*D_NET *99 0.809118
*CONN
*P gpio_analog_en[19] O
*I *874:gpio_analog_en[19] O *D counter_gpio_config_example
*CAP
1 gpio_analog_en[19] 0.000204742
2 *874:gpio_analog_en[19] 0.00262555
3 *99:13 0.0601147
4 *99:11 0.05991
5 *99:9 0.125271
6 *99:7 0.127896
7 gpio_analog_en[19] gpio_dm0[19] 0
8 *99:7 *141:7 3.10486e-05
9 *99:7 *193:7 0
10 *99:7 *325:7 0.000403342
11 *99:9 *105:17 0.046068
12 *99:9 *115:9 0.000277338
13 *99:9 *123:9 0.0382143
14 *99:9 *189:9 0.314167
15 *99:9 *259:27 2.33476e-05
16 *99:9 *316:11 0
17 *99:9 *369:9 0
18 *99:9 *402:9 0.00110735
19 *99:9 *778:13 0
20 *99:13 gpio_dm1[23] 0.00282879
21 *99:13 gpio_oeb[21] 0.00042722
22 *99:13 *102:13 0.00481936
23 *99:13 *191:13 0.00642722
24 *99:13 *718:23 0.00781053
25 *91:9 *99:9 0.00564014
26 *95:13 *99:13 0.00485099
*RES
1 *874:gpio_analog_en[19] *99:7 14.6827 
2 *99:7 *99:9 4533.63 
3 *99:9 *99:11 8 
4 *99:11 *99:13 202.53 
5 *99:13 gpio_analog_en[19] 12.2982 
*END

*D_NET *100 0.392559
*CONN
*P gpio_analog_en[1] O
*I *874:gpio_analog_en[1] O *D counter_gpio_config_example
*CAP
1 gpio_analog_en[1] 0.00503487
2 *874:gpio_analog_en[1] 0.00021791
3 *100:20 0
4 *100:13 0.0272268
5 *100:11 0.0221919
6 *100:9 0.145252
7 *100:7 0.14547
8 gpio_analog_en[1] gpio_dm0[1] 0.000900721
9 gpio_analog_en[1] gpio_dm1[1] 0
10 gpio_analog_en[1] *232:18 0
11 gpio_analog_en[1] *276:23 0.00615239
12 *100:7 *401:11 2.79086e-05
13 *100:7 *415:11 4.41293e-05
14 *100:9 *188:9 0
15 *100:9 *356:9 0
16 *100:9 *401:11 0.00138103
17 *100:9 *415:11 0.000420592
18 *100:13 *131:13 0.0378557
19 *100:13 *353:13 0
20 *100:13 *794:13 0.000383182
21 *92:13 *100:13 0
*RES
1 *874:gpio_analog_en[1] *100:7 0.662667 
2 *100:7 *100:9 425.611 
3 *100:9 *100:11 8 
4 *100:11 *100:13 96.0176 
5 *100:13 gpio_analog_en[1] 23.9115 
6 gpio_analog_en[1] *100:20 0.0589474 
*END

*D_NET *101 0.725775
*CONN
*P gpio_analog_en[20] O
*I *874:gpio_analog_en[20] O *D counter_gpio_config_example
*CAP
1 gpio_analog_en[20] 0.00102047
2 *874:gpio_analog_en[20] 0.00397722
3 *101:17 0.023899
4 *101:15 0.0240289
5 *101:9 0.16934
6 *101:7 0.172167
7 gpio_analog_en[20] gpio_dm0[20] 0
8 gpio_analog_en[20] *233:25 0
9 *101:7 *220:7 0.000651528
10 *101:7 *547:7 0
11 *101:9 *259:17 0.00025212
12 *101:9 *329:9 0.125862
13 *101:9 *565:9 0.0443255
14 *101:9 *689:13 0
15 *101:9 *691:13 0
16 *101:15 *183:19 0.000373116
17 *101:17 gpio_analog_pol[20] 0.000414505
18 *101:17 *189:13 0.0779222
19 *101:17 *274:13 0.00130328
20 *101:17 *365:13 0.0792766
21 *101:17 *366:13 0.000962049
*RES
1 *874:gpio_analog_en[20] *101:7 18.5467 
2 *101:7 *101:9 4556.23 
3 *101:9 *101:15 35.4671 
4 *101:15 *101:17 158.308 
5 *101:17 gpio_analog_en[20] 30.4336 
*END

*D_NET *102 0.590653
*CONN
*P gpio_analog_en[21] O
*I *874:gpio_analog_en[21] O *D counter_gpio_config_example
*CAP
1 gpio_analog_en[21] 8.30691e-05
2 *874:gpio_analog_en[21] 0.00334192
3 *102:13 0.01164
4 *102:11 0.011557
5 *102:9 0.188122
6 *102:7 0.191464
7 gpio_analog_en[21] gpio_dm0[21] 0
8 *102:7 *347:7 5.69873e-05
9 *102:7 *411:7 0.000330701
10 *102:7 *569:11 0
11 *102:9 *151:9 0
12 *102:9 *168:9 0.049596
13 *102:9 *205:21 0.00618713
14 *102:9 *272:19 0
15 *102:9 *349:9 0.0281297
16 *102:9 *821:13 0
17 *102:13 gpio_oeb[21] 0.00474957
18 *102:13 *191:13 0.0313179
19 *95:13 *102:13 0.0592577
20 *99:13 *102:13 0.00481936
*RES
1 *874:gpio_analog_en[21] *102:7 17.2587 
2 *102:7 *102:9 4638.57 
3 *102:9 *102:11 8 
4 *102:11 *102:13 108.978 
5 *102:13 gpio_analog_en[21] 9.48107 
*END

*D_NET *103 0.614831
*CONN
*P gpio_analog_en[22] O
*I *874:gpio_analog_en[22] O *D counter_gpio_config_example
*CAP
1 gpio_analog_en[22] 0.100392
2 *874:gpio_analog_en[22] 0.00214213
3 *103:27 0.101417
4 *103:17 0.0183869
5 *103:15 0.0173609
6 *103:13 0.0201959
7 *103:11 0.022338
8 gpio_analog_en[22] gpio_dm0[22] 0
9 gpio_analog_en[22] *675:5 0.284169
10 gpio_analog_en[22] *729:13 0.0177394
11 *103:11 *186:9 0.000421062
12 *103:11 *337:11 0
13 *103:13 *106:13 0.00947968
14 *103:13 *330:13 0.0062229
15 *103:13 *372:13 0.0110019
16 *103:13 *661:25 0
17 *103:13 *738:21 0
18 *103:17 *215:35 0
19 *103:17 *391:21 0
20 *103:17 *742:9 0.00229695
21 *103:27 *142:13 0.000237833
22 *103:27 *233:21 0.000198558
23 *103:27 *235:17 0.000468593
24 *103:27 *271:21 0.000190284
25 *103:27 *542:21 0.000171985
26 *103:27 *568:5 0
27 *103:27 *677:5 0
*RES
1 *874:gpio_analog_en[22] *103:11 13.7419 
2 *103:11 *103:13 570.792 
3 *103:13 *103:15 15 
4 *103:15 *103:17 349.844 
5 *103:17 *103:27 40.4721 
6 *103:27 gpio_analog_en[22] 3636.3 
*END

*D_NET *104 0.736499
*CONN
*P gpio_analog_en[23] O
*I *874:gpio_analog_en[23] O *D counter_gpio_config_example
*CAP
1 gpio_analog_en[23] 0.000751373
2 *874:gpio_analog_en[23] 0.00175931
3 *104:29 0.261672
4 *104:27 0.32276
5 *104:13 0.0702772
6 *104:11 0.0101973
7 gpio_analog_en[23] gpio_dm1[23] 0
8 gpio_analog_en[23] *236:17 0
9 *104:11 *254:11 0.000323083
10 *104:11 *364:7 2.49637e-05
11 *104:11 *364:9 0.000219631
12 *104:13 *112:13 0.00196382
13 *104:13 *114:13 0.0026832
14 *104:13 *117:13 0.000129945
15 *104:13 *278:13 0.0189294
16 *104:13 *367:15 0.000750551
17 *104:13 *367:17 0.00170718
18 *104:13 *367:23 1.14351e-05
19 *104:13 *705:41 0
20 *104:27 *114:19 5.96737e-06
21 *104:27 *117:17 0.000151597
22 *104:27 *147:21 0.00292021
23 *104:27 *160:17 0.000119992
24 *104:27 *190:21 0.00115407
25 *104:27 *215:31 0.00864207
26 *104:27 *233:13 0.00173842
27 *104:27 *235:17 0.00258999
28 *104:27 *271:13 0.00241239
29 *104:27 *323:13 0.00245938
30 *104:27 *367:25 0.00271694
31 *104:27 *368:55 0.000125282
32 *104:27 *381:17 0.000330785
33 *104:27 *542:13 0.00140726
34 *104:27 *544:17 0.00525628
35 *104:27 *742:9 0.00275706
36 *104:27 *781:17 0.0025662
37 *104:27 *783:13 0.00173836
38 *104:27 *829:16 0.0032466
*RES
1 *874:gpio_analog_en[23] *104:11 12.6256 
2 *104:11 *104:13 300.171 
3 *104:13 *104:27 34.8148 
4 *104:27 *104:29 653.636 
5 *104:29 gpio_analog_en[23] 30.1182 
*END

*D_NET *105 0.780146
*CONN
*P gpio_analog_en[24] O
*I *874:gpio_analog_en[24] O *D counter_gpio_config_example
*CAP
1 gpio_analog_en[24] 0.0116286
2 *874:gpio_analog_en[24] 0.0024595
3 *105:17 0.209788
4 *105:15 0.198587
5 *105:9 0.00726892
6 *105:7 0.00930112
7 gpio_analog_en[24] gpio_dm0[24] 0.000420238
8 gpio_analog_en[24] *237:13 0
9 gpio_analog_en[24] *402:13 0
10 *105:7 *392:11 0
11 *105:7 *407:7 0.000308671
12 *105:7 *428:9 4.51655e-06
13 *105:9 *122:17 0.021693
14 *105:9 *127:9 0.000282337
15 *105:9 *133:9 0.000574773
16 *105:9 *180:9 0.00237335
17 *105:9 *244:9 0.000309589
18 *105:9 *426:9 0.000168861
19 *105:9 *431:9 0.00145092
20 *105:9 *778:13 0.00500238
21 *105:15 gpio_ib_mode_sel[36] 0
22 *105:17 *115:9 0.00294708
23 *105:17 *116:9 0.0359716
24 *105:17 *154:17 0
25 *105:17 *189:9 0.038562
26 *105:17 *194:9 0.00707954
27 *105:17 *244:9 0.0349327
28 *105:17 *283:17 0
29 *105:17 *316:11 0.015306
30 *105:17 *369:9 0.0147578
31 *105:17 *377:17 0
32 *105:17 *402:9 0.0469471
33 *105:17 *779:18 0.00224766
34 *91:9 *105:17 0.019718
35 *91:17 *105:17 0.0313987
36 *93:17 *105:9 0.0125886
37 *99:9 *105:17 0.046068
*RES
1 *874:gpio_analog_en[24] *105:7 13.6523 
2 *105:7 *105:9 403.701 
3 *105:9 *105:15 16.9576 
4 *105:15 *105:17 687.908 
5 *105:17 gpio_analog_en[24] 39.3852 
*END

*D_NET *106 0.417473
*CONN
*P gpio_analog_en[25] O
*I *874:gpio_analog_en[25] O *D counter_gpio_config_example
*CAP
1 gpio_analog_en[25] 7.61232e-05
2 *874:gpio_analog_en[25] 0.00232248
3 *106:25 0.0553317
4 *106:23 0.0552556
5 *106:21 0.0455121
6 *106:19 0.0458805
7 *106:13 0.0753367
8 *106:11 0.0772907
9 *106:11 *148:11 0.000354737
10 *106:11 *531:11 0.000356219
11 *106:13 *278:21 0
12 *106:13 *330:13 0.0136123
13 *106:13 *367:17 0
14 *106:13 *367:23 0
15 *106:13 *661:21 0
16 *106:13 *661:25 0
17 *106:19 *330:31 0.000389143
18 *106:21 *149:21 0.0362135
19 *106:21 *330:31 6.10873e-05
20 *106:25 gpio_analog_pol[25] 0
21 *106:25 gpio_dm0[25] 0
22 *106:25 *238:33 0
23 *106:25 *282:33 0
24 *103:13 *106:13 0.00947968
*RES
1 *874:gpio_analog_en[25] *106:11 13.656 
2 *106:11 *106:13 1803.12 
3 *106:13 *106:19 16.9576 
4 *106:19 *106:21 166.212 
5 *106:21 *106:23 8 
6 *106:23 *106:25 155.533 
7 *106:25 gpio_analog_en[25] 0.292133 
*END

*D_NET *107 0.588127
*CONN
*P gpio_analog_en[26] O
*I *874:gpio_analog_en[26] O *D counter_gpio_config_example
*CAP
1 gpio_analog_en[26] 0.00842775
2 *874:gpio_analog_en[26] 0.00579295
3 *107:9 0.0881695
4 *107:7 0.0855347
5 gpio_analog_en[26] gpio_dm0[26] 0.000408965
6 gpio_analog_en[26] gpio_dm1[26] 0.000585488
7 gpio_analog_en[26] *239:25 0.00440384
8 gpio_analog_en[26] *365:9 0.000120707
9 gpio_analog_en[26] *413:17 0.000363588
10 *107:7 gpio_oeb[37] 0
11 *107:7 *304:7 0.000903763
12 *107:7 *373:7 0
13 *107:7 *434:7 5.25543e-05
14 *107:9 *178:17 0.00225754
15 *107:9 *193:9 0.00556027
16 *107:9 *193:17 0.00168664
17 *107:9 *241:19 0.00979249
18 *107:9 *268:17 0.00544381
19 *107:9 *284:9 0.202321
20 *107:9 *374:9 0.166302
*RES
1 *874:gpio_analog_en[26] *107:7 21.5949 
2 *107:7 *107:9 530.637 
3 *107:9 gpio_analog_en[26] 33.1953 
*END

*D_NET *108 0.482861
*CONN
*P gpio_analog_en[27] O
*I *874:gpio_analog_en[27] O *D counter_gpio_config_example
*CAP
1 gpio_analog_en[27] 0.00134822
2 *874:gpio_analog_en[27] 0.00154234
3 *108:25 0.0401401
4 *108:23 0.0387919
5 *108:21 0.0482434
6 *108:19 0.0483668
7 *108:13 0.0760304
8 *108:11 0.0774493
9 gpio_analog_en[27] gpio_dm0[27] 0.00162697
10 gpio_analog_en[27] gpio_dm1[27] 0
11 *108:11 *166:7 3.9421e-05
12 *108:11 *166:9 0.000211091
13 *108:11 *170:11 0.000248777
14 *108:13 *112:13 0.057278
15 *108:13 *278:13 0.0156145
16 *108:13 *672:13 0
17 *108:13 *694:13 0
18 *108:13 *787:15 0.0024164
19 *108:19 *112:31 0.000174856
20 *108:19 *156:17 0
21 *108:21 *112:31 6.10873e-05
22 *108:25 gpio_analog_pol[27] 0
23 *108:25 gpio_dm0[27] 0.0732778
24 *108:25 *456:15 0
*RES
1 *874:gpio_analog_en[27] *108:11 12.368 
2 *108:11 *108:13 2036.23 
3 *108:13 *108:19 16.3565 
4 *108:19 *108:21 121.15 
5 *108:21 *108:23 8 
6 *108:23 *108:25 150.451 
7 *108:25 gpio_analog_en[27] 21.3102 
*END

*D_NET *109 0.577378
*CONN
*P gpio_analog_en[28] O
*I *874:gpio_analog_en[28] O *D counter_gpio_config_example
*CAP
1 gpio_analog_en[28] 0.000111145
2 *874:gpio_analog_en[28] 0.00234855
3 *109:17 0.0566503
4 *109:15 0.0565392
5 *109:13 0.0676547
6 *109:11 0.0700032
7 *109:11 *169:11 0
8 *109:11 *727:29 0.00370047
9 *109:13 *153:13 0.172575
10 *109:13 *156:13 0
11 *109:13 *326:13 0.000675604
12 *109:13 *326:21 0.144244
13 *109:13 *357:17 0
14 *109:13 *531:13 0
15 *109:13 *533:13 0
16 *109:13 *533:21 0.000464238
17 *109:13 *544:13 0.000926942
18 *109:17 gpio_dm0[28] 0.000975781
19 *109:17 gpio_dm1[28] 0
20 *109:17 *153:17 0
21 *97:11 *109:11 0.000508052
*RES
1 *874:gpio_analog_en[28] *109:11 16.4467 
2 *109:11 *109:13 432.899 
3 *109:13 *109:15 8 
4 *109:15 *109:17 157.422 
5 *109:17 gpio_analog_en[28] 0.426533 
*END

*D_NET *110 0.444758
*CONN
*P gpio_analog_en[29] O
*I *874:gpio_analog_en[29] O *D counter_gpio_config_example
*CAP
1 gpio_analog_en[29] 5.71532e-05
2 *874:gpio_analog_en[29] 0
3 *110:10 0.0386396
4 *110:8 0.0385825
5 *110:6 0.0473907
6 *110:4 0.0473907
7 *110:6 *237:9 0.000476686
8 *110:6 *286:21 0.127404
9 *110:6 *372:23 0.00046299
10 *110:6 *372:25 0.0671723
11 *110:6 *553:12 0.000315006
12 *110:10 gpio_dm0[29] 0
13 *110:10 gpio_dm1[29] 0.00020385
14 *110:10 *286:25 0.076663
*RES
1 *874:gpio_analog_en[29] *110:4 8 
2 *110:4 *110:6 312.629 
3 *110:6 *110:8 8 
4 *110:8 *110:10 149.178 
5 *110:10 gpio_analog_en[29] 0.219333 
*END

*D_NET *111 0.562407
*CONN
*P gpio_analog_en[2] O
*I *874:gpio_analog_en[2] O *D counter_gpio_config_example
*CAP
1 gpio_analog_en[2] 0.0152585
2 *874:gpio_analog_en[2] 4.55709e-05
3 *111:15 0.0372092
4 *111:13 0.0219506
5 *111:11 0.243949
6 *111:9 0.243995
7 gpio_analog_en[2] gpio_dm0[2] 0
8 gpio_analog_en[2] gpio_inp_dis[2] 0
9 gpio_analog_en[2] *287:17 0
*RES
1 *874:gpio_analog_en[2] *111:9 9.04593 
2 *111:9 *111:11 61.6467 
3 *111:11 *111:13 0.891 
4 *111:13 *111:15 67.2037 
5 *111:15 gpio_analog_en[2] 48.0521 
*END

*D_NET *112 0.360794
*CONN
*P gpio_analog_en[30] O
*I *874:gpio_analog_en[30] O *D counter_gpio_config_example
*CAP
1 gpio_analog_en[30] 0.00159551
2 *874:gpio_analog_en[30] 0.0018486
3 *112:33 0.0519604
4 *112:31 0.0544882
5 *112:21 0.0645064
6 *112:19 0.0605092
7 *112:13 0.0208649
8 *112:11 0.0225873
9 gpio_analog_en[30] gpio_dm0[30] 0.000475147
10 gpio_analog_en[30] gpio_dm1[30] 0
11 gpio_analog_en[30] *462:15 0.000224793
12 *112:11 *211:11 0.000229249
13 *112:11 *267:7 3.14433e-05
14 *112:11 *267:9 0.000199417
15 *112:13 *278:13 0.00675206
16 *112:19 *114:29 0
17 *112:33 gpio_analog_pol[30] 0.000755411
18 *112:33 gpio_dm0[30] 0.0142883
19 *112:33 *156:17 0
20 *104:13 *112:13 0.00196382
21 *108:13 *112:13 0.057278
22 *108:19 *112:31 0.000174856
23 *108:21 *112:31 6.10873e-05
*RES
1 *874:gpio_analog_en[30] *112:11 12.4539 
2 *112:11 *112:13 741.054 
3 *112:13 *112:19 16.2707 
4 *112:19 *112:21 152.1 
5 *112:21 *112:31 18.2368 
6 *112:31 *112:33 147.446 
7 *112:33 gpio_analog_en[30] 22.6852 
*END

*D_NET *113 0.246099
*CONN
*P gpio_analog_en[31] O
*I *874:gpio_analog_en[31] O *D counter_gpio_config_example
*CAP
1 gpio_analog_en[31] 0.00011309
2 *874:gpio_analog_en[31] 0.00129215
3 *113:17 0.0561962
4 *113:15 0.0560831
5 *113:13 0.0553234
6 *113:11 0.0566155
7 *113:11 *308:7 2.82839e-05
8 *113:11 *308:9 0.00012599
9 *113:11 *397:7 0
10 *113:11 *397:9 0
11 *113:13 *290:13 0
12 *113:13 *292:13 0.0201607
13 *113:13 *293:13 0
14 *113:13 *381:13 0
15 *113:13 *557:13 0
16 *113:17 gpio_analog_pol[31] 0
17 *113:17 gpio_dm0[31] 0.000160637
18 *113:17 gpio_dm1[31] 0
19 *113:17 *810:17 0
*RES
1 *874:gpio_analog_en[31] *113:11 11.08 
2 *113:11 *113:13 1360.82 
3 *113:13 *113:15 8 
4 *113:15 *113:17 152.055 
5 *113:17 gpio_analog_en[31] 0.434 
*END

*D_NET *114 0.257157
*CONN
*P gpio_analog_en[32] O
*I *874:gpio_analog_en[32] O *D counter_gpio_config_example
*CAP
1 gpio_analog_en[32] 0.00690565
2 *874:gpio_analog_en[32] 0.00260705
3 *114:29 0.0433817
4 *114:27 0.0404768
5 *114:21 0.0437322
6 *114:19 0.039771
7 *114:13 0.00264661
8 gpio_analog_en[32] gpio_dm0[32] 0.000396118
9 gpio_analog_en[32] gpio_dm1[32] 0
10 gpio_analog_en[32] *246:53 0
11 gpio_analog_en[32] *413:17 0.000363588
12 *114:13 *117:13 0.000151253
13 *114:13 *185:9 0.000290585
14 *114:13 *346:11 0.000442758
15 *114:13 *367:17 0.00214978
16 *114:13 *367:23 0.000263222
17 *114:19 *117:17 1.13067e-05
18 *114:19 *742:9 1.67025e-05
19 *114:29 *246:51 0.000135596
20 *114:29 *246:53 0.0707263
21 *104:13 *114:13 0.0026832
22 *104:27 *114:19 5.96737e-06
23 *112:19 *114:29 0
*RES
1 *874:gpio_analog_en[32] *114:13 48.0708 
2 *114:13 *114:19 16.0989 
3 *114:19 *114:21 97.9589 
4 *114:21 *114:27 17.5125 
5 *114:27 *114:29 138.387 
6 *114:29 gpio_analog_en[32] 16.5788 
*END

*D_NET *115 0.226824
*CONN
*P gpio_analog_en[33] O
*I *874:gpio_analog_en[33] O *D counter_gpio_config_example
*CAP
1 gpio_analog_en[33] 0.00146009
2 *874:gpio_analog_en[33] 0.00321943
3 *115:17 0.0105993
4 *115:9 0.045127
5 *115:7 0.0392072
6 gpio_analog_en[33] gpio_dm0[33] 0.000791307
7 gpio_analog_en[33] gpio_dm1[33] 0
8 *115:7 *159:7 0.00038881
9 *115:7 *311:7 0.000153375
10 *115:7 *317:7 0
11 *115:9 *154:9 0.00712358
12 *115:9 *204:9 0.0541593
13 *115:9 *283:9 0.0071197
14 *115:9 *309:9 0.00197398
15 *115:9 *377:9 0.00624214
16 *115:9 *377:17 0.00945682
17 *115:9 *779:18 0.0189451
18 *115:17 gpio_analog_pol[33] 0
19 *115:17 gpio_dm0[33] 0.0100213
20 *115:17 *462:15 0.000169974
21 *115:17 *555:17 0
22 *115:17 *775:9 0.000816341
23 *91:9 *115:9 0.00135293
24 *91:17 *115:9 0.00527222
25 *99:9 *115:9 0.000277338
26 *105:17 *115:9 0.00294708
*RES
1 *874:gpio_analog_en[33] *115:7 15.2408 
2 *115:7 *115:9 176.239 
3 *115:9 *115:17 45.3189 
4 *115:17 gpio_analog_en[33] 11.7828 
*END

*D_NET *116 0.156393
*CONN
*P gpio_analog_en[34] O
*I *874:gpio_analog_en[34] O *D counter_gpio_config_example
*CAP
1 gpio_analog_en[34] 0.0133697
2 *874:gpio_analog_en[34] 0.00284019
3 *116:9 0.0367029
4 *116:7 0.0261734
5 gpio_analog_en[34] gpio_dm0[34] 0.000943748
6 gpio_analog_en[34] *160:21 0
7 gpio_analog_en[34] *292:17 0
8 *116:7 *122:15 0.000129256
9 *116:7 *159:7 0.000405364
10 *116:7 *550:7 0
11 *116:9 *244:9 0.0293834
12 *91:9 *116:9 0.0104734
13 *105:17 *116:9 0.0359716
*RES
1 *874:gpio_analog_en[34] *116:7 14.3821 
2 *116:7 *116:9 137.652 
3 *116:9 gpio_analog_en[34] 39.5644 
*END

*D_NET *117 0.242788
*CONN
*P gpio_analog_en[35] O
*I *874:gpio_analog_en[35] O *D counter_gpio_config_example
*CAP
1 gpio_analog_en[35] 0.013883
2 *874:gpio_analog_en[35] 0.00186959
3 *117:23 0.0161116
4 *117:17 0.0261587
5 *117:15 0.0239301
6 *117:13 0.0223737
7 *117:11 0.0242433
8 gpio_analog_en[35] gpio_dm0[35] 0
9 gpio_analog_en[35] gpio_dm1[35] 0
10 *117:11 *227:7 3.43522e-05
11 *117:11 *227:9 0.000227277
12 *117:11 *544:11 0.00025552
13 *117:13 *367:17 0.000381583
14 *117:13 *410:13 0.000173453
15 *117:17 *215:31 0.00449309
16 *117:17 *215:35 0.00321849
17 *117:17 *234:17 0.00146228
18 *117:17 *240:19 0
19 *117:17 *293:17 0.000192269
20 *117:17 *338:17 2.17681e-05
21 *117:17 *381:17 0.0326445
22 *117:17 *391:19 4.51815e-05
23 *117:17 *391:21 0.000110155
24 *117:17 *427:17 0.0630367
25 *117:17 *557:17 6.25481e-06
26 *117:17 *742:9 0
27 *117:17 *829:16 0.000535818
28 *117:23 *174:9 0.00450185
29 *117:23 *204:9 0.00127259
30 *117:23 *274:9 0.000774816
31 *117:23 *377:17 0.000386112
32 *104:13 *117:13 0.000129945
33 *104:27 *117:17 0.000151597
34 *114:13 *117:13 0.000151253
35 *114:19 *117:17 1.13067e-05
*RES
1 *874:gpio_analog_en[35] *117:11 12.8403 
2 *117:11 *117:13 48.4176 
3 *117:13 *117:15 8 
4 *117:15 *117:17 124.219 
5 *117:17 *117:23 27.2261 
6 *117:23 gpio_analog_en[35] 30.9316 
*END

*D_NET *118 0.194584
*CONN
*P gpio_analog_en[36] O
*I *874:gpio_analog_en[36] O *D counter_gpio_config_example
*CAP
1 gpio_analog_en[36] 0.000815597
2 *874:gpio_analog_en[36] 0.0917717
3 *118:20 0.00369408
4 *118:18 0.00287849
5 *118:16 0.0917717
6 gpio_analog_en[36] gpio_analog_pol[36] 0
7 gpio_analog_en[36] gpio_dm0[36] 0.000241762
8 *118:16 *329:7 0.000126949
9 *118:20 *427:21 0.00328383
*RES
1 *874:gpio_analog_en[36] *118:16 45.0795 
2 *118:16 *118:18 8 
3 *118:18 *118:20 86.0679 
4 *118:20 gpio_analog_en[36] 9.81533 
*END

*D_NET *119 0.079964
*CONN
*P gpio_analog_en[37] O
*I *874:gpio_analog_en[37] O *D counter_gpio_config_example
*CAP
1 gpio_analog_en[37] 0.00557369
2 *874:gpio_analog_en[37] 0.00842408
3 *119:9 0.0190653
4 *119:7 0.0219157
5 gpio_analog_en[37] gpio_dm0[37] 0.000147005
6 gpio_analog_en[37] *559:9 0.00598541
7 *119:7 *212:7 0
8 *119:7 *225:7 0.000129524
9 *119:7 *268:9 0.00104722
10 *119:9 *159:9 0.00654336
11 *119:9 *163:9 0
12 *119:9 *202:9 0.00840378
13 *119:9 *365:9 0.00272901
*RES
1 *874:gpio_analog_en[37] *119:7 30.3533 
2 *119:7 *119:9 54.7643 
3 *119:9 gpio_analog_en[37] 23.6007 
*END

*D_NET *120 0.112156
*CONN
*P gpio_analog_en[38] O
*I *874:gpio_analog_en[38] O *D counter_gpio_config_example
*CAP
1 gpio_analog_en[38] 0.00314905
2 *874:gpio_analog_en[38] 0.000750797
3 *120:10 0.0487673
4 *120:8 0.046369
5 gpio_analog_en[38] gpio_dm0[38] 0
6 gpio_analog_en[38] *431:13 0.00467212
7 gpio_analog_en[38] *693:9 0
8 *120:8 *200:13 3.01406e-05
9 *120:8 *208:26 0.000190842
10 *120:8 *237:9 0.000760696
11 *120:10 *160:15 0.000461151
12 *120:10 *200:11 0.00127934
13 *120:10 *200:13 0.00220707
14 *120:10 *208:26 7.16676e-05
15 *120:10 *208:30 0.00279485
16 *120:10 *208:32 0
17 *120:10 *232:16 8.07089e-05
18 *120:10 *252:40 0.000131977
19 *120:10 *252:42 0
20 *120:10 *295:20 4.0167e-05
21 *120:10 *558:16 0.000399045
*RES
1 *874:gpio_analog_en[38] *120:8 12.0693 
2 *120:8 *120:10 138.372 
3 *120:10 gpio_analog_en[38] 45.2151 
*END

*D_NET *121 0.205686
*CONN
*P gpio_analog_en[39] O
*I *874:gpio_analog_en[39] O *D counter_gpio_config_example
*CAP
1 gpio_analog_en[39] 0.00220859
2 *874:gpio_analog_en[39] 0.00583816
3 *121:19 0.00220859
4 *121:17 0.0178872
5 *121:15 0.0178872
6 *121:13 0.0254134
7 *121:11 0.0312515
8 gpio_analog_en[39] *253:25 0
9 *121:11 *153:11 0
10 *121:11 *246:23 0.000506966
11 *121:11 *282:11 0
12 *121:13 *213:13 0.0599023
13 *121:13 *310:13 0.0026364
14 *121:17 *476:11 0
15 *121:17 *830:9 0.0399456
*RES
1 *874:gpio_analog_en[39] *121:11 23.3589 
2 *121:11 *121:13 845.288 
3 *121:13 *121:15 8 
4 *121:15 *121:17 76.9067 
5 *121:17 *121:19 8 
6 *121:19 gpio_analog_en[39] 48.5232 
*END

*D_NET *122 0.68172
*CONN
*P gpio_analog_en[3] O
*I *874:gpio_analog_en[3] O *D counter_gpio_config_example
*CAP
1 gpio_analog_en[3] 5.30282e-05
2 *874:gpio_analog_en[3] 0.00514775
3 *122:195 0.109492
4 *122:193 0.123247
5 *122:177 0.0532594
6 *122:77 0.0666812
7 *122:17 0.0320314
8 *122:15 0.00994959
9 *122:15 *244:9 0.00505318
10 *122:15 *324:7 0.000175509
11 *122:15 *538:7 0
12 *122:15 *550:7 0
13 *122:17 *180:9 0.00293122
14 *122:17 *194:9 0.00087741
15 *122:17 *244:9 0.000794769
16 *122:17 *426:9 0.00239358
17 *122:17 *778:13 0.0256787
18 *122:77 *294:31 0.000142783
19 *122:77 *391:9 0.000146202
20 *122:77 *534:28 0.000287558
21 *122:77 *662:27 0
22 *122:177 *294:31 0.000285566
23 *122:177 *703:131 0.000140259
24 *122:177 *728:19 0.000127617
25 *122:177 *762:13 0.000831233
26 *122:177 *801:13 0.000854445
27 *122:177 *805:19 0.000127617
28 *122:177 *817:19 0.000287558
29 *122:177 *824:10 2.22781e-05
30 *122:193 *160:17 0.000232597
31 *122:193 *368:33 0.000366016
32 *122:193 *481:25 0.000244886
33 *122:195 gpio_dm0[3] 0.000544571
34 *122:195 *124:11 0.00771588
35 *122:195 *166:17 0
36 *122:195 *205:11 0.000541225
37 *122:195 *227:9 0
38 *122:195 *254:17 0.206937
39 *91:9 *122:15 0.00173734
40 *93:15 *122:15 0.000213165
41 *95:7 *122:15 0.000345481
42 *105:9 *122:17 0.021693
43 *116:7 *122:15 0.000129256
*RES
1 *874:gpio_analog_en[3] *122:15 43.2341 
2 *122:15 *122:17 350.879 
3 *122:17 *122:77 48.8155 
4 *122:77 *122:177 49.9579 
5 *122:177 *122:193 15.498 
6 *122:193 *122:195 440.78 
7 *122:195 gpio_analog_en[3] 0.21 
*END

*D_NET *123 0.355672
*CONN
*P gpio_analog_en[40] O
*I *874:gpio_analog_en[40] O *D counter_gpio_config_example
*CAP
1 gpio_analog_en[40] 0.000261146
2 *874:gpio_analog_en[40] 0.00301963
3 *123:21 0.0311379
4 *123:19 0.0311389
5 *123:13 0.0119823
6 *123:11 0.0117201
7 *123:9 0.0261589
8 *123:7 0.0291785
9 gpio_analog_en[40] *255:17 9.81461e-05
10 *123:7 *197:7 0
11 *123:7 *224:7 0.000130884
12 *123:7 *361:7 0.00043175
13 *123:9 *283:9 0.00980865
14 *123:9 *309:9 0.00239994
15 *123:9 *377:9 0
16 *123:9 *402:9 0.00549461
17 *123:9 *460:19 7.83044e-05
18 *123:9 *469:21 3.05864e-05
19 *123:9 *471:11 0
20 *123:9 *779:18 0.000282337
21 *123:13 *212:13 0.0337563
22 *123:13 *300:13 0.000248734
23 *123:21 *300:21 0.100275
24 *123:21 *340:17 0.005048
25 *123:21 *433:22 0
26 *123:21 *739:9 0.0142451
27 *91:9 *123:9 0.000531907
28 *99:9 *123:9 0.0382143
*RES
1 *874:gpio_analog_en[40] *123:7 14.7685 
2 *123:7 *123:9 887.545 
3 *123:9 *123:11 8 
4 *123:11 *123:13 68.4059 
5 *123:13 *123:19 26.8425 
6 *123:19 *123:21 1072.59 
7 *123:21 gpio_analog_en[40] 20.8 
*END

*D_NET *124 0.310099
*CONN
*P gpio_analog_en[41] O
*I *874:gpio_analog_en[41] O *D counter_gpio_config_example
*CAP
1 gpio_analog_en[41] 0.00017768
2 *874:gpio_analog_en[41] 0.00472099
3 *124:21 0.0019887
4 *124:19 0.00181102
5 *124:17 0.0420356
6 *124:15 0.0420356
7 *124:13 0.0395488
8 *124:11 0.0442698
9 *124:11 *205:11 6.89605e-05
10 *124:11 *227:7 2.49637e-05
11 *124:11 *227:9 0.000971174
12 *124:13 *263:13 0.00322113
13 *124:13 *441:11 0.00865013
14 *124:17 *566:10 0.0921195
15 *124:17 *785:9 0
16 *124:21 gpio_dm0[41] 0
17 *124:21 gpio_dm1[41] 0
18 *124:21 *256:13 0.00425064
19 *97:13 *124:13 0.0164889
20 *122:195 *124:11 0.00771588
*RES
1 *874:gpio_analog_en[41] *124:11 24.6469 
2 *124:11 *124:13 968.538 
3 *124:13 *124:15 8 
4 *124:15 *124:17 177.628 
5 *124:17 *124:19 8 
6 *124:19 *124:21 60.0093 
7 *124:21 gpio_analog_en[41] 4.46393 
*END

*D_NET *125 0.416551
*CONN
*P gpio_analog_en[42] O
*I *874:gpio_analog_en[42] O *D counter_gpio_config_example
*CAP
1 gpio_analog_en[42] 0.000175312
2 *874:gpio_analog_en[42] 0.00234767
3 *125:21 0.0618941
4 *125:19 0.0627959
5 *125:9 0.0162521
6 *125:7 0.0175226
7 *125:7 *161:7 0.000313853
8 *125:7 *389:7 3.69973e-05
9 *125:9 *133:9 0.0027637
10 *125:9 *431:9 0.040251
11 *125:9 *778:13 0
12 *125:19 *164:9 0
13 *125:19 *164:13 0.000125646
14 *125:19 *168:19 0.00229516
15 *125:19 *296:9 0
16 *125:19 *300:13 7.86635e-05
17 *125:19 *344:19 1.83553e-05
18 *125:21 *168:21 0.159467
19 *125:21 *212:13 0.0256629
20 *125:21 *296:13 0.0235641
21 *125:21 *344:35 0.000985902
22 *125:21 *433:22 0
*RES
1 *874:gpio_analog_en[42] *125:7 13.4805 
2 *125:7 *125:9 526.951 
3 *125:9 *125:19 38.3071 
4 *125:19 *125:21 1987.81 
5 *125:21 gpio_analog_en[42] 19.06 
*END

*D_NET *126 0.319611
*CONN
*P gpio_analog_en[43] O
*I *874:gpio_analog_en[43] O *D counter_gpio_config_example
*CAP
1 gpio_analog_en[43] 6.21287e-05
2 *874:gpio_analog_en[43] 0.000597198
3 *126:21 0.00274769
4 *126:19 0.00268557
5 *126:17 0.0849695
6 *126:15 0.0849695
7 *126:13 0.0170014
8 *126:11 0.0175986
9 *126:11 *222:7 5.00638e-05
10 *126:11 *222:9 0
11 *126:11 *375:13 0.00010663
12 *126:11 *429:7 4.4107e-05
13 *126:11 *429:9 0.00026946
14 *126:13 *463:11 0.0277403
15 *126:17 *432:19 0
16 *126:17 *563:15 0.0757672
17 *126:21 gpio_dm0[43] 0
18 *126:21 *258:21 0.00500192
*RES
1 *874:gpio_analog_en[43] *126:11 10.4093 
2 *126:11 *126:13 510.048 
3 *126:13 *126:15 8 
4 *126:15 *126:17 294.407 
5 *126:17 *126:19 8 
6 *126:19 *126:21 82.0493 
7 *126:21 gpio_analog_en[43] 1.50179 
*END

*D_NET *127 0.393363
*CONN
*P gpio_analog_en[4] O
*I *874:gpio_analog_en[4] O *D counter_gpio_config_example
*CAP
1 gpio_analog_en[4] 0.00249193
2 *874:gpio_analog_en[4] 0.00243211
3 *127:21 0.150122
4 *127:19 0.147701
5 *127:9 0.0155421
6 *127:7 0.0179031
7 gpio_analog_en[4] gpio_analog_pol[4] 5.27114e-06
8 gpio_analog_en[4] gpio_dm0[4] 0.00154859
9 gpio_analog_en[4] gpio_dm1[4] 0
10 gpio_analog_en[4] *833:13 0
11 *127:7 *416:7 0.000345384
12 *127:7 *552:7 0.000283632
13 *127:9 *180:9 0.00521563
14 *127:9 *244:9 0.00871591
15 *127:9 *392:13 0.016808
16 *127:9 *426:9 0.00732944
17 *127:19 *425:17 4.35395e-05
18 *127:19 *557:17 9.11163e-05
19 *127:21 *347:21 0
20 *127:21 *557:17 0.0102572
21 *127:21 *562:9 0
22 *127:21 *804:9 0
23 *93:17 *127:9 0.00622166
24 *93:17 *127:19 2.33476e-05
25 *105:9 *127:9 0.000282337
*RES
1 *874:gpio_analog_en[4] *127:7 13.5235 
2 *127:7 *127:9 78.7547 
3 *127:9 *127:19 31.5059 
4 *127:19 *127:21 3079.78 
5 *127:21 gpio_analog_en[4] 49.2018 
*END

*D_NET *128 0.525313
*CONN
*P gpio_analog_en[5] O
*I *874:gpio_analog_en[5] O *D counter_gpio_config_example
*CAP
1 gpio_analog_en[5] 0.00326849
2 *874:gpio_analog_en[5] 0.00344941
3 *128:21 0.103567
4 *128:19 0.100298
5 *128:17 0.021099
6 *128:15 0.0245484
7 gpio_analog_en[5] gpio_dm0[5] 0.000384918
8 gpio_analog_en[5] *172:17 0
9 gpio_analog_en[5] *260:13 0.000922633
10 *128:15 gpio_slow_sel[3] 0.00137701
11 *128:15 *341:7 3.41368e-05
12 *128:15 *341:9 8.52474e-05
13 *128:15 *357:17 0.000286693
14 *128:15 *544:11 0.00098475
15 *128:17 *243:13 0.00346954
16 *128:17 *346:13 0.000121281
17 *128:17 *376:13 0.0350214
18 *128:17 *749:25 0.00117697
19 *128:21 *172:17 0
20 *128:21 *260:13 0.225219
*RES
1 *874:gpio_analog_en[5] *128:15 18.3581 
2 *128:15 *128:17 86.2437 
3 *128:17 *128:19 8 
4 *128:19 *128:21 424.581 
5 *128:21 gpio_analog_en[5] 8.15827 
*END

*D_NET *129 0.66604
*CONN
*P gpio_analog_en[6] O
*I *874:gpio_analog_en[6] O *D counter_gpio_config_example
*CAP
1 gpio_analog_en[6] 5.67991e-05
2 *874:gpio_analog_en[6] 0.00017616
3 *129:13 0.190787
4 *129:11 0.19073
5 *129:9 0.0562636
6 *129:7 0.0564397
7 *129:7 *291:7 3.60704e-05
8 *129:7 *328:7 3.467e-05
9 *129:9 *132:9 0.0640528
10 *129:9 *135:11 0.000121281
11 *129:9 *139:9 0.00134834
12 *129:9 *141:9 0.00764391
13 *129:9 *144:8 0
14 *129:9 *266:17 0.00940857
15 *129:9 *298:16 3.35762e-05
16 *129:9 *301:9 0.000282337
17 *129:9 *324:17 0.00218652
18 *129:9 *342:13 0.00183657
19 *129:9 *347:9 0.0676309
20 *129:9 *391:9 0.000147317
21 *129:9 *433:8 0.00137228
22 *129:9 *433:10 0
23 *129:9 *532:17 0.00360762
24 *129:9 *532:19 0.00230906
25 *129:9 *664:16 0.00299344
26 *129:9 *665:14 0.0019077
27 *129:13 gpio_dm0[6] 0.00463308
28 *129:13 *173:13 0
*RES
1 *874:gpio_analog_en[6] *129:7 8.5432 
2 *129:7 *129:9 246.941 
3 *129:9 *129:11 8 
4 *129:11 *129:13 554.124 
5 *129:13 gpio_analog_en[6] 0.224933 
*END

*D_NET *130 0.627694
*CONN
*P gpio_analog_en[7] O
*I *874:gpio_analog_en[7] O *D counter_gpio_config_example
*CAP
1 gpio_analog_en[7] 0.00385461
2 *874:gpio_analog_en[7] 0.00776994
3 *130:17 0.143122
4 *130:15 0.139267
5 *130:13 0.126627
6 *130:11 0.134397
7 gpio_analog_en[7] gpio_dm0[7] 0
8 gpio_analog_en[7] *174:13 0
9 *130:11 *222:9 0
10 *130:11 *310:11 0.000975899
11 *130:11 *549:11 0.000117363
12 *130:11 *716:27 0.00110457
13 *130:13 *177:13 0
14 *130:13 *187:13 0.01796
15 *130:13 *390:13 0.00292329
16 *130:13 *401:13 0
17 *130:13 *409:13 0.0495753
18 *130:13 *430:15 0
19 *130:17 *306:13 0
*RES
1 *874:gpio_analog_en[7] *130:11 32.2461 
2 *130:11 *130:13 367.909 
3 *130:13 *130:15 8 
4 *130:15 *130:17 410.327 
5 *130:17 gpio_analog_en[7] 8.5764 
*END

*D_NET *131 0.666948
*CONN
*P gpio_analog_en[8] O
*I *874:gpio_analog_en[8] O *D counter_gpio_config_example
*CAP
1 gpio_analog_en[8] 0.00530356
2 *874:gpio_analog_en[8] 0.000159643
3 *131:13 0.129233
4 *131:11 0.12393
5 *131:9 0.140728
6 *131:7 0.140887
7 gpio_analog_en[8] gpio_dm0[8] 0.000624818
8 gpio_analog_en[8] *263:17 0.00515891
9 gpio_analog_en[8] *571:26 0
10 *131:7 *281:11 5.20351e-05
11 *131:7 *429:7 4.4107e-05
12 *131:9 *281:11 0.000769671
13 *131:9 *298:16 0.00186551
14 *131:9 *320:17 0
15 *131:9 *364:17 0
16 *131:9 *419:11 0
17 *131:9 *429:7 7.9281e-06
18 *131:9 *429:9 0.00869893
19 *131:9 *540:17 0
20 *131:13 *262:13 0
21 *131:13 *794:13 0.0716295
22 *92:13 *131:13 0
23 *100:13 *131:13 0.0378557
*RES
1 *874:gpio_analog_en[8] *131:7 0.662667 
2 *131:7 *131:9 425.439 
3 *131:9 *131:11 8 
4 *131:11 *131:13 413.732 
5 *131:13 gpio_analog_en[8] 24.5844 
*END

*D_NET *132 1.01915
*CONN
*P gpio_analog_en[9] O
*I *874:gpio_analog_en[9] O *D counter_gpio_config_example
*CAP
1 gpio_analog_en[9] 4.93706e-05
2 *874:gpio_analog_en[9] 0.000107344
3 *132:13 0.0992106
4 *132:11 0.0991612
5 *132:9 0.106927
6 *132:7 0.107034
7 *132:7 *242:7 2.33508e-05
8 *132:7 *266:15 6.52177e-06
9 *132:7 *301:7 2.28029e-05
10 *132:9 *135:11 0.033555
11 *132:9 *190:19 0.000215319
12 *132:9 *266:17 0.0218913
13 *132:9 *570:6 0.0300812
14 *132:13 gpio_analog_pol[9] 0.000246266
15 *132:13 gpio_dm0[9] 0.00192596
16 *132:13 *176:21 0.163161
17 *132:13 *264:13 0.29148
18 *132:13 *572:9 0
19 *129:9 *132:9 0.0640528
*RES
1 *874:gpio_analog_en[9] *132:7 8.37147 
2 *132:7 *132:9 406.75 
3 *132:9 *132:11 8 
4 *132:11 *132:13 553.952 
5 *132:13 gpio_analog_en[9] 0.189467 
*END

*D_NET *133 0.952516
*CONN
*P gpio_analog_pol[0] O
*I *874:gpio_analog_pol[0] O *D counter_gpio_config_example
*CAP
1 gpio_analog_pol[0] 0.00113668
2 *874:gpio_analog_pol[0] 0.00242201
3 *133:17 0.00310437
4 *133:15 0.00196768
5 *133:13 0.0781009
6 *133:11 0.0781009
7 *133:9 0.0187807
8 *133:7 0.0212027
9 gpio_analog_pol[0] gpio_inp_dis[0] 0.000926129
10 gpio_analog_pol[0] *221:17 0.00200403
11 *133:7 *206:7 0.000336094
12 *133:7 *304:7 0.000336094
13 *133:9 *309:9 0
14 *133:9 *392:11 0.000893681
15 *133:9 *392:13 0.00492144
16 *133:9 *426:9 0.0319827
17 *133:9 *431:9 0.000715942
18 *133:9 *569:11 0.00210205
19 *133:9 *569:19 0.00627434
20 *133:9 *666:15 0.000625906
21 *133:9 *778:13 0.00129581
22 *133:13 *155:21 0.285395
23 *133:13 *309:13 0.287574
24 *133:13 *404:15 0.0444354
25 *133:13 *457:23 0.000380568
26 *133:13 *461:19 0.0020364
27 *133:13 *462:19 3.04773e-05
28 *133:13 *529:13 2.33576e-05
29 *133:13 *669:9 0.0628696
30 *133:17 *309:17 0.00410595
31 *133:17 *529:17 0.00391777
32 *93:17 *133:9 0.00117946
33 *105:9 *133:9 0.000574773
34 *125:9 *133:9 0.0027637
*RES
1 *874:gpio_analog_pol[0] *133:7 13.5235 
2 *133:7 *133:9 86.8784 
3 *133:9 *133:11 8 
4 *133:11 *133:13 555.141 
5 *133:13 *133:15 8 
6 *133:15 *133:17 102.266 
7 *133:17 gpio_analog_pol[0] 12.0871 
*END

*D_NET *134 0.624968
*CONN
*P gpio_analog_pol[10] O
*I *874:gpio_analog_pol[10] O *D counter_gpio_config_example
*CAP
1 gpio_analog_pol[10] 0.00708643
2 *874:gpio_analog_pol[10] 0.000235256
3 *134:13 0.100252
4 *134:11 0.0931656
5 *134:9 0.144754
6 *134:7 0.144989
7 gpio_analog_pol[10] *222:17 0.00883902
8 gpio_analog_pol[10] *530:17 0
9 *134:7 *330:11 3.98964e-05
10 *134:7 *338:11 3.3537e-05
11 *134:9 *321:11 0
12 *134:9 *330:11 0.000317528
13 *134:9 *331:9 0
14 *134:9 *338:11 3.24146e-05
15 *134:13 *136:13 0
16 *134:13 *303:13 0.000765061
17 *134:13 *351:13 0.124458
18 *134:13 *437:13 0
*RES
1 *874:gpio_analog_pol[10] *134:7 0.662667 
2 *134:7 *134:9 418.914 
3 *134:9 *134:11 8 
4 *134:11 *134:13 385.172 
5 *134:13 gpio_analog_pol[10] 31.4537 
*END

*D_NET *135 0.931406
*CONN
*P gpio_analog_pol[11] O
*I *874:gpio_analog_pol[11] O *D counter_gpio_config_example
*CAP
1 gpio_analog_pol[11] 8.50808e-05
2 *874:gpio_analog_pol[11] 0.0002197
3 *135:15 0.146418
4 *135:13 0.146333
5 *135:11 0.0848737
6 *135:9 0.0850934
7 *135:9 *201:7 0
8 *135:9 *264:7 8.25082e-05
9 *135:9 *665:14 3.4377e-06
10 *135:11 *141:9 0.000160135
11 *135:11 *190:19 0.00251707
12 *135:11 *266:17 0.194375
13 *135:11 *301:9 0.0154263
14 *135:11 *324:17 0
15 *135:11 *664:18 0
16 *135:11 *728:29 0
17 *135:15 gpio_dm0[11] 0
18 *135:15 gpio_inp_dis[11] 0.000762932
19 *135:15 *223:13 0
20 *135:15 *531:17 0.221379
21 *129:9 *135:11 0.000121281
22 *132:9 *135:11 0.033555
*RES
1 *874:gpio_analog_pol[11] *135:9 8.76533 
2 *135:9 *135:11 2929.97 
3 *135:11 *135:13 8 
4 *135:13 *135:15 553.909 
5 *135:15 gpio_analog_pol[11] 0.336933 
*END

*D_NET *136 0.718538
*CONN
*P gpio_analog_pol[12] O
*I *874:gpio_analog_pol[12] O *D counter_gpio_config_example
*CAP
1 gpio_analog_pol[12] 0.00721135
2 *874:gpio_analog_pol[12] 0.000197045
3 *136:13 0.157806
4 *136:11 0.150595
5 *136:9 0.127842
6 *136:7 0.128039
7 gpio_analog_pol[12] *224:13 0.00909002
8 gpio_analog_pol[12] *532:23 0.000493844
9 *136:7 *192:7 3.52394e-05
10 *136:7 *399:7 4.03797e-05
11 *136:7 *399:9 5.5178e-06
12 *136:9 *399:9 0.0338353
13 *136:13 *437:13 0.0601186
14 *136:13 *704:13 0.043228
15 *89:7 *136:7 0
16 *89:9 *136:9 0
17 *134:13 *136:13 0
*RES
1 *874:gpio_analog_pol[12] *136:7 0.662667 
2 *136:7 *136:9 417.711 
3 *136:9 *136:11 8 
4 *136:11 *136:13 514.644 
5 *136:13 gpio_analog_pol[12] 32.8799 
*END

*D_NET *137 0.925231
*CONN
*P gpio_analog_pol[13] O
*I *874:gpio_analog_pol[13] O *D counter_gpio_config_example
*CAP
1 gpio_analog_pol[13] 0.00813177
2 *874:gpio_analog_pol[13] 0.000526559
3 *137:17 0.221964
4 *137:15 0.213833
5 *137:13 0.097826
6 *137:11 0.0983526
7 gpio_analog_pol[13] gpio_inp_dis[13] 0.000242342
8 gpio_analog_pol[13] *225:13 0.000919927
9 gpio_analog_pol[13] *533:25 0.0139744
10 *137:11 *278:11 1.928e-05
11 *137:11 *310:11 2.20866e-05
12 *137:11 *815:17 0
13 *137:13 *303:7 7.71075e-05
14 *137:13 *303:9 0.213139
15 *137:13 *422:11 0.000174835
16 *137:17 *138:13 0
17 *137:17 *276:15 0
18 *137:17 *708:13 0.0560288
*RES
1 *874:gpio_analog_pol[13] *137:11 24.5728 
2 *137:11 *137:13 411.4 
3 *137:13 *137:15 8 
4 *137:15 *137:17 660.49 
5 *137:17 gpio_analog_pol[13] 38.7711 
*END

*D_NET *138 0.776114
*CONN
*P gpio_analog_pol[14] O
*I *874:gpio_analog_pol[14] O *D counter_gpio_config_example
*CAP
1 gpio_analog_pol[14] 0.00826191
2 *874:gpio_analog_pol[14] 0.000179638
3 *138:20 0
4 *138:13 0.230781
5 *138:11 0.222519
6 *138:9 0.140628
7 *138:7 0.140807
8 gpio_analog_pol[14] gpio_dm0[14] 0
9 gpio_analog_pol[14] gpio_inp_dis[14] 0.00192338
10 gpio_analog_pol[14] *534:34 0.0143266
11 *138:7 *153:11 4.23198e-05
12 *138:7 *236:7 3.17555e-05
13 *138:7 *530:7 0
14 *138:7 *530:9 0
15 *138:9 *153:11 0.000631172
16 *138:9 *530:9 0
17 *138:13 *746:13 0.0159821
18 *137:17 *138:13 0
*RES
1 *874:gpio_analog_pol[14] *138:7 0.662667 
2 *138:7 *138:9 409.983 
3 *138:9 *138:11 8 
4 *138:11 *138:13 696.666 
5 *138:13 gpio_analog_pol[14] 39.5392 
6 gpio_analog_pol[14] *138:20 0.0819512 
*END

*D_NET *139 0.836997
*CONN
*P gpio_analog_pol[15] O
*I *874:gpio_analog_pol[15] O *D counter_gpio_config_example
*CAP
1 gpio_analog_pol[15] 9.04367e-05
2 *874:gpio_analog_pol[15] 0.000217801
3 *139:17 0.151068
4 *139:15 0.150978
5 *139:13 0.177675
6 *139:11 0.177675
7 *139:9 0.0143937
8 *139:7 0.0146116
9 gpio_analog_pol[15] gpio_dm0[15] 0
10 gpio_analog_pol[15] gpio_inp_dis[15] 0
11 gpio_analog_pol[15] *535:17 0
12 *139:7 *332:7 3.49644e-05
13 *139:7 *438:7 0
14 *139:9 *141:9 0.0656904
15 *139:9 *143:9 0.0014072
16 *139:9 *147:9 0.0556972
17 *139:9 *266:17 0.00342026
18 *139:9 *324:17 0
19 *139:9 *344:19 0.00139774
20 *139:9 *347:9 0.00512288
21 *139:9 *347:19 0.00024836
22 *139:9 *389:9 0.00247577
23 *139:9 *532:19 0
24 *139:13 *556:17 0
25 *139:13 *773:11 0
26 *139:13 *788:9 0
27 *139:13 *811:11 0.0134444
28 *139:17 *227:21 0
29 *139:17 *535:17 0
30 *129:9 *139:9 0.00134834
*RES
1 *874:gpio_analog_pol[15] *139:7 8.58613 
2 *139:7 *139:9 927.689 
3 *139:9 *139:11 8 
4 *139:11 *139:13 516.372 
5 *139:13 *139:15 8 
6 *139:15 *139:17 3510.3 
7 *139:17 gpio_analog_pol[15] 1.86429 
*END

*D_NET *140 0.559689
*CONN
*P gpio_analog_pol[16] O
*I *874:gpio_analog_pol[16] O *D counter_gpio_config_example
*CAP
1 gpio_analog_pol[16] 0.00122102
2 *874:gpio_analog_pol[16] 0.000204976
3 *140:13 0.174063
4 *140:11 0.172842
5 *140:9 0.105534
6 *140:7 0.105739
7 gpio_analog_pol[16] gpio_dm0[16] 0
8 gpio_analog_pol[16] gpio_inp_dis[16] 0
9 *140:7 *245:7 3.01206e-05
10 *140:7 *425:11 3.50921e-05
11 *140:9 *239:11 0
12 *140:9 *299:9 0
13 *140:9 *425:11 1.96305e-05
*RES
1 *874:gpio_analog_pol[16] *140:7 0.662667 
2 *140:7 *140:9 306.986 
3 *140:9 *140:11 8 
4 *140:11 *140:13 4010.35 
5 *140:13 gpio_analog_pol[16] 34.6628 
*END

*D_NET *141 0.837621
*CONN
*P gpio_analog_pol[17] O
*I *874:gpio_analog_pol[17] O *D counter_gpio_config_example
*CAP
1 gpio_analog_pol[17] 0.154824
2 *874:gpio_analog_pol[17] 0.000142814
3 *141:15 0.154824
4 *141:13 0.100806
5 *141:11 0.100806
6 *141:9 0.0129
7 *141:7 0.0130428
8 gpio_analog_pol[17] gpio_dm0[17] 0
9 gpio_analog_pol[17] gpio_inp_dis[17] 0
10 *141:7 *193:7 3.25149e-05
11 *141:9 *266:17 0.0374636
12 *141:9 *301:9 0.0358358
13 *141:9 *389:9 0.00401505
14 *141:13 *406:13 0.149355
15 *141:13 *537:13 0
16 *141:13 *688:19 4.86254e-05
17 *99:7 *141:7 3.10486e-05
18 *129:9 *141:9 0.00764391
19 *135:11 *141:9 0.000160135
20 *139:9 *141:9 0.0656904
*RES
1 *874:gpio_analog_pol[17] *141:7 8.50027 
2 *141:7 *141:9 944.592 
3 *141:9 *141:11 8 
4 *141:11 *141:13 373.233 
5 *141:13 *141:15 8 
6 *141:15 gpio_analog_pol[17] 3596.86 
*END

*D_NET *142 0.626144
*CONN
*P gpio_analog_pol[18] O
*I *874:gpio_analog_pol[18] O *D counter_gpio_config_example
*CAP
1 gpio_analog_pol[18] 0.15649
2 *874:gpio_analog_pol[18] 0.000448938
3 *142:15 0.15649
4 *142:13 0.0917725
5 *142:11 0.0917725
6 *142:9 0.00469689
7 *142:7 0.00514583
8 gpio_analog_pol[18] gpio_dm0[18] 0
9 gpio_analog_pol[18] gpio_inp_dis[18] 0
10 *142:7 *168:7 0
11 *142:7 *180:7 5.61967e-05
12 *142:9 *143:9 0.0015673
13 *142:9 *190:9 0.0260069
14 *142:9 *391:9 0.00543538
15 *142:9 *391:19 7.70197e-05
16 *142:9 *532:19 0.0292765
17 *142:13 *147:21 0
18 *142:13 *235:17 0
19 *142:13 *323:13 0
20 *142:13 *367:25 0
21 *142:13 *553:18 0.0566687
22 *142:13 *699:9 0
23 *142:13 *743:17 0
24 *142:13 *781:13 0
25 *103:27 *142:13 0.000237833
*RES
1 *874:gpio_analog_pol[18] *142:7 8.9296 
2 *142:7 *142:9 373.416 
3 *142:9 *142:11 8 
4 *142:11 *142:13 290.629 
5 *142:13 *142:15 8 
6 *142:15 gpio_analog_pol[18] 3632.78 
*END

*D_NET *143 0.636344
*CONN
*P gpio_analog_pol[19] O
*I *874:gpio_analog_pol[19] O *D counter_gpio_config_example
*CAP
1 gpio_analog_pol[19] 0.155815
2 *874:gpio_analog_pol[19] 0.000310961
3 *143:15 0.155815
4 *143:13 0.0501394
5 *143:11 0.0501394
6 *143:9 0.0100457
7 *143:7 0.0103566
8 gpio_analog_pol[19] gpio_dm0[19] 0
9 gpio_analog_pol[19] gpio_inp_dis[19] 0
10 *143:7 *179:9 5.08904e-05
11 *143:7 *548:7 4.94317e-05
12 *143:9 *147:9 0.050777
13 *143:9 *190:9 0.0279172
14 *143:9 *302:9 0.012319
15 *143:9 *347:19 0.000253298
16 *143:9 *391:9 0.00498171
17 *143:9 *391:19 7.23298e-05
18 *143:9 *532:19 0.00336262
19 *143:13 *360:13 0.100477
20 *143:13 *796:11 0.000265253
21 *143:13 *809:11 0.000222729
22 *139:9 *143:9 0.0014072
23 *142:9 *143:9 0.0015673
*RES
1 *874:gpio_analog_pol[19] *143:7 8.75787 
2 *143:7 *143:9 691.049 
3 *143:9 *143:11 8 
4 *143:11 *143:13 195.403 
5 *143:13 *143:15 8 
6 *143:15 gpio_analog_pol[19] 3617.99 
*END

*D_NET *144 0.580224
*CONN
*P gpio_analog_pol[1] O
*I *874:gpio_analog_pol[1] O *D counter_gpio_config_example
*CAP
1 gpio_analog_pol[1] 0.0102744
2 *874:gpio_analog_pol[1] 0.00158082
3 *144:10 0.276161
4 *144:8 0.267468
5 gpio_analog_pol[1] gpio_dm0[1] 0
6 gpio_analog_pol[1] gpio_inp_dis[2] 0.00138863
7 gpio_analog_pol[1] *188:13 0.00506804
8 gpio_analog_pol[1] *276:23 0
9 gpio_analog_pol[1] *540:17 0
10 gpio_analog_pol[1] *700:13 0.000930606
11 *144:8 *433:10 0
12 *144:8 *532:17 0.000495811
13 *144:8 *664:18 0.000456124
14 *144:8 *665:22 0.000397746
15 *144:10 *186:9 0.00621683
16 *144:10 *555:11 0.000249755
17 *144:10 *558:16 0.00897911
18 *89:13 gpio_analog_pol[1] 0.00055741
19 *129:9 *144:8 0
*RES
1 *874:gpio_analog_pol[1] *144:8 13.8974 
2 *144:8 *144:10 65.2697 
3 *144:10 gpio_analog_pol[1] 44.969 
*END

*D_NET *145 0.428645
*CONN
*P gpio_analog_pol[20] O
*I *874:gpio_analog_pol[20] O *D counter_gpio_config_example
*CAP
1 gpio_analog_pol[20] 0.00254165
2 *874:gpio_analog_pol[20] 0.0101357
3 *145:13 0.160731
4 *145:11 0.168325
5 gpio_analog_pol[20] gpio_dm0[20] 0
6 gpio_analog_pol[20] gpio_inp_dis[20] 0
7 gpio_analog_pol[20] *183:21 0.000329636
8 gpio_analog_pol[20] *189:13 0.00072038
9 gpio_analog_pol[20] *233:25 0
10 *145:11 *185:9 0
11 *145:11 *258:11 0
12 *145:11 *408:11 0.000921028
13 *145:11 *787:17 0.0031136
14 *145:13 *400:13 0.0814125
15 *145:13 *805:29 0
16 *101:17 gpio_analog_pol[20] 0.000414505
*RES
1 *874:gpio_analog_pol[20] *145:11 37.4411 
2 *145:11 *145:13 3669.47 
3 *145:13 gpio_analog_pol[20] 41.958 
*END

*D_NET *146 0.391818
*CONN
*P gpio_analog_pol[21] O
*I *874:gpio_analog_pol[21] O *D counter_gpio_config_example
*CAP
1 gpio_analog_pol[21] 9.62404e-05
2 *874:gpio_analog_pol[21] 0.00120586
3 *146:29 0.158053
4 *146:27 0.159614
5 *146:17 0.00362358
6 *146:15 0.00196667
7 *146:13 0.0108029
8 *146:11 0.0120088
9 gpio_analog_pol[21] gpio_dm0[21] 0
10 gpio_analog_pol[21] gpio_inp_dis[21] 0
11 *146:13 *292:13 0.0172514
12 *146:13 *294:13 0.00216363
13 *146:13 *380:13 0.00407947
14 *146:13 *557:13 0
15 *146:13 *562:13 0
16 *146:13 *672:13 0
17 *146:13 *782:29 0
18 *146:17 *205:17 0.000523536
19 *146:17 *705:39 0.00175742
20 *146:17 *740:18 0
21 *146:17 *749:21 0.000149428
22 *146:17 *793:11 0.000989496
23 *146:27 *238:27 4.62763e-05
24 *146:27 *240:19 0.000321314
25 *146:27 *425:17 0.00355883
26 *146:27 *705:29 0.000152344
27 *146:27 *749:13 0.00163122
28 *146:29 *234:21 0
29 *146:29 *464:19 0.0116448
30 *146:29 *542:25 0
31 *90:7 *146:11 0
32 *90:9 *146:11 0
33 *98:11 *146:11 0.00017798
*RES
1 *874:gpio_analog_pol[21] *146:11 11.2517 
2 *146:11 *146:13 341.9 
3 *146:13 *146:15 15 
4 *146:15 *146:17 52.0757 
5 *146:17 *146:27 42.7384 
6 *146:27 *146:29 3651.16 
7 *146:29 gpio_analog_pol[21] 1.86429 
*END

*D_NET *147 0.537619
*CONN
*P gpio_analog_pol[22] O
*I *874:gpio_analog_pol[22] O *D counter_gpio_config_example
*CAP
1 gpio_analog_pol[22] 0.162402
2 *874:gpio_analog_pol[22] 0.000277721
3 *147:23 0.162402
4 *147:21 0.00860817
5 *147:19 0.00940171
6 *147:15 0.00097697
7 *147:9 0.00937611
8 *147:7 0.0094704
9 gpio_analog_pol[22] gpio_dm0[22] 0
10 gpio_analog_pol[22] gpio_inp_dis[22] 0
11 gpio_analog_pol[22] *678:5 0
12 gpio_analog_pol[22] *688:5 0.00298373
13 *147:7 *407:7 0
14 *147:7 *664:16 2.15023e-05
15 *147:9 *302:9 0.000223698
16 *147:9 *344:19 0.00449721
17 *147:9 *347:9 0.00681137
18 *147:19 *225:9 0
19 *147:19 *532:19 0.00157665
20 *147:21 *271:13 0.0181882
21 *147:21 *323:13 0.0254053
22 *147:21 *367:25 0.00208169
23 *147:21 *544:17 0.00351997
24 *104:27 *147:21 0.00292021
25 *139:9 *147:9 0.0556972
26 *142:13 *147:21 0
27 *143:9 *147:9 0.050777
*RES
1 *874:gpio_analog_pol[22] *147:7 8.672 
2 *147:7 *147:9 713.058 
3 *147:9 *147:15 32.5271 
4 *147:15 *147:19 29.0975 
5 *147:19 *147:21 51.6619 
6 *147:21 *147:23 8 
7 *147:23 gpio_analog_pol[22] 3638.41 
*END

*D_NET *148 0.488514
*CONN
*P gpio_analog_pol[23] O
*I *874:gpio_analog_pol[23] O *D counter_gpio_config_example
*CAP
1 gpio_analog_pol[23] 0.00230657
2 *874:gpio_analog_pol[23] 0.0030383
3 *148:21 0.16047
4 *148:19 0.158164
5 *148:17 0.0088361
6 *148:15 0.0088361
7 *148:13 0.00353519
8 *148:11 0.00657349
9 gpio_analog_pol[23] gpio_inp_dis[23] 0
10 gpio_analog_pol[23] *236:17 0
11 *148:11 *261:7 3.98964e-05
12 *148:11 *261:9 0.000410913
13 *148:11 *531:11 0
14 *148:13 *149:13 0.000195376
15 *148:13 *205:13 0.00828796
16 *148:13 *282:13 6.39507e-05
17 *148:13 *415:13 0.00043359
18 *148:13 *479:11 0
19 *148:13 *716:23 0
20 *148:17 *347:21 0.0590733
21 *148:17 *391:21 0.059071
22 *148:17 *427:17 0.00882363
23 *148:21 *544:21 0
24 *106:11 *148:11 0.000354737
*RES
1 *874:gpio_analog_pol[23] *148:11 15.2016 
2 *148:11 *148:13 116.528 
3 *148:13 *148:15 15 
4 *148:15 *148:17 644.276 
5 *148:17 *148:19 15 
6 *148:19 *148:21 3598.23 
7 *148:21 gpio_analog_pol[23] 49.8489 
*END

*D_NET *149 0.729862
*CONN
*P gpio_analog_pol[24] O
*I *874:gpio_analog_pol[24] O *D counter_gpio_config_example
*CAP
1 gpio_analog_pol[24] 0.000111145
2 *874:gpio_analog_pol[24] 0.00234769
3 *149:25 0.0390942
4 *149:23 0.0389831
5 *149:21 0.107283
6 *149:19 0.10734
7 *149:13 0.0493775
8 *149:11 0.0516676
9 *149:11 *165:7 3.77593e-05
10 *149:11 *165:9 0.000385298
11 *149:11 *270:7 3.3057e-05
12 *149:11 *270:9 0.00039
13 *149:13 *240:13 0
14 *149:13 *246:23 0.000844102
15 *149:13 *246:35 0.000898896
16 *149:13 *246:37 0.0174933
17 *149:13 *282:13 0.0297933
18 *149:13 *415:13 0.000344016
19 *149:13 *479:11 0
20 *149:13 *481:11 0
21 *149:13 *738:21 0
22 *149:21 *326:21 0
23 *149:21 *330:21 0.041095
24 *149:21 *330:31 0.0009778
25 *149:21 *415:13 0.128763
26 *149:25 gpio_dm0[24] 0.0004168
27 *149:25 *237:13 0.0757761
28 *149:25 *314:13 0
29 *149:25 *545:30 0
30 *106:21 *149:21 0.0362135
31 *148:13 *149:13 0.000195376
*RES
1 *874:gpio_analog_pol[24] *149:11 14.944 
2 *149:11 *149:13 1234.05 
3 *149:13 *149:19 16.0989 
4 *149:19 *149:21 517.944 
5 *149:21 *149:23 8 
6 *149:23 *149:25 155.876 
7 *149:25 gpio_analog_pol[24] 0.426533 
*END

*D_NET *150 0.580673
*CONN
*P gpio_analog_pol[25] O
*I *874:gpio_analog_pol[25] O *D counter_gpio_config_example
*CAP
1 gpio_analog_pol[25] 0.00665231
2 *874:gpio_analog_pol[25] 0.0049161
3 *150:9 0.158384
4 *150:7 0.156648
5 gpio_analog_pol[25] gpio_dm0[25] 0.000469403
6 gpio_analog_pol[25] gpio_inp_dis[25] 0
7 gpio_analog_pol[25] *238:33 0.00984641
8 *150:7 *202:7 0.00123156
9 *150:7 *274:7 0.000620902
10 *150:7 *547:7 0
11 *150:9 *152:17 0
12 *150:9 *193:17 0
13 *150:9 *201:9 0
14 *150:9 *220:9 0.00237198
15 *150:9 *288:9 0
16 *150:9 *328:9 0.226781
17 *150:9 *379:13 0
18 *150:9 *383:9 0
19 *150:9 *396:15 0.000245254
20 *150:9 *469:11 0.0125063
21 *106:25 gpio_analog_pol[25] 0
*RES
1 *874:gpio_analog_pol[25] *150:7 23.1405 
2 *150:7 *150:9 638.531 
3 *150:9 gpio_analog_pol[25] 30.6716 
*END

*D_NET *151 0.348359
*CONN
*P gpio_analog_pol[26] O
*I *874:gpio_analog_pol[26] O *D counter_gpio_config_example
*CAP
1 gpio_analog_pol[26] 0.000417885
2 *874:gpio_analog_pol[26] 0.00364775
3 *151:15 0.0115812
4 *151:9 0.131637
5 *151:7 0.124122
6 gpio_analog_pol[26] gpio_dm0[26] 0.000275803
7 gpio_analog_pol[26] gpio_inp_dis[26] 0.000385594
8 *151:7 *174:7 0.000425321
9 *151:7 *396:15 0.000449643
10 *151:9 *325:9 0.0440482
11 *151:9 *821:13 0.031369
12 *151:15 gpio_inp_dis[26] 0
13 *151:15 *239:25 0
14 *95:9 *151:9 0
15 *102:9 *151:9 0
*RES
1 *874:gpio_analog_pol[26] *151:7 16.5717 
2 *151:7 *151:9 2879.97 
3 *151:9 *151:15 44.4779 
4 *151:15 gpio_analog_pol[26] 15.7201 
*END

*D_NET *152 0.439786
*CONN
*P gpio_analog_pol[27] O
*I *874:gpio_analog_pol[27] O *D counter_gpio_config_example
*CAP
1 gpio_analog_pol[27] 0.00894826
2 *874:gpio_analog_pol[27] 0.00720822
3 *152:17 0.107868
4 *152:15 0.0991183
5 *152:9 0.0200655
6 *152:7 0.0270753
7 gpio_analog_pol[27] gpio_dm0[27] 0
8 gpio_analog_pol[27] gpio_inp_dis[27] 8.43939e-05
9 gpio_analog_pol[27] *240:28 0
10 *152:7 *180:7 0.00033979
11 *152:7 *189:7 0
12 *152:7 *233:7 0.00015239
13 *152:9 *379:13 0.021972
14 *152:9 *396:17 0.0565002
15 *152:15 gpio_holdover[33] 0
16 *152:15 *203:17 0.000308381
17 *152:17 *288:9 0.0843875
18 *152:17 *396:17 0.00575733
19 *108:25 gpio_analog_pol[27] 0
20 *150:9 *152:17 0
*RES
1 *874:gpio_analog_pol[27] *152:7 23.9563 
2 *152:7 *152:9 719.925 
3 *152:9 *152:15 16.6141 
4 *152:15 *152:17 323.482 
5 *152:17 gpio_analog_pol[27] 30.0071 
*END

*D_NET *153 0.544328
*CONN
*P gpio_analog_pol[28] O
*I *874:gpio_analog_pol[28] O *D counter_gpio_config_example
*CAP
1 gpio_analog_pol[28] 0.00289191
2 *874:gpio_analog_pol[28] 0.00283056
3 *153:17 0.0558103
4 *153:15 0.0529184
5 *153:13 0.0861493
6 *153:11 0.0889799
7 gpio_analog_pol[28] gpio_dm0[28] 0.000649229
8 gpio_analog_pol[28] gpio_inp_dis[28] 0
9 *153:11 *246:23 0.000511741
10 *153:13 *281:21 0
11 *153:13 *286:13 0.00952183
12 *153:13 *357:17 0
13 *153:13 *423:13 0.0310582
14 *153:13 *444:11 0.0162632
15 *153:13 *446:11 0.0183732
16 *153:17 gpio_dm0[28] 0.00512186
17 *109:13 *153:13 0.172575
18 *109:17 *153:17 0
19 *121:11 *153:11 0
20 *138:7 *153:11 4.23198e-05
21 *138:9 *153:11 0.000631172
*RES
1 *874:gpio_analog_pol[28] *153:11 16.6184 
2 *153:11 *153:13 420.205 
3 *153:13 *153:15 8 
4 *153:15 *153:17 151.181 
5 *153:17 gpio_analog_pol[28] 7.01773 
*END

*D_NET *154 0.424664
*CONN
*P gpio_analog_pol[29] O
*I *874:gpio_analog_pol[29] O *D counter_gpio_config_example
*CAP
1 gpio_analog_pol[29] 0.0103708
2 *874:gpio_analog_pol[29] 0.00329661
3 *154:24 0
4 *154:17 0.057364
5 *154:15 0.0472337
6 *154:9 0.0146982
7 *154:7 0.0177543
8 gpio_analog_pol[29] gpio_dm0[29] 0.00884978
9 gpio_analog_pol[29] *286:25 0
10 *154:7 *360:7 0.000140426
11 *154:7 *395:7 0
12 *154:7 *535:7 0.000170036
13 *154:7 *559:9 0
14 *154:9 *274:9 0
15 *154:9 *283:9 0.000493703
16 *154:9 *377:9 0.0403149
17 *154:9 *471:11 0.00219857
18 *154:15 *381:17 0.000151053
19 *154:17 *174:9 0.00509552
20 *154:17 *274:9 0.00131164
21 *154:17 *283:17 0.11678
22 *154:17 *377:17 0.0913178
23 *105:17 *154:17 0
24 *115:9 *154:9 0.00712358
*RES
1 *874:gpio_analog_pol[29] *154:7 15.1979 
2 *154:7 *154:9 528.359 
3 *154:9 *154:15 16.6141 
4 *154:15 *154:17 306.727 
5 *154:17 gpio_analog_pol[29] 37.8237 
6 gpio_analog_pol[29] *154:24 0.101818 
*END

*D_NET *155 0.74039
*CONN
*P gpio_analog_pol[2] O
*I *874:gpio_analog_pol[2] O *D counter_gpio_config_example
*CAP
1 gpio_analog_pol[2] 0.00123113
2 *874:gpio_analog_pol[2] 0.000637098
3 *155:25 0.0154361
4 *155:23 0.0142049
5 *155:21 0.100479
6 *155:19 0.100723
7 *155:9 0.00253448
8 *155:7 0.00292819
9 gpio_analog_pol[2] gpio_dm0[2] 0.00192523
10 gpio_analog_pol[2] gpio_inp_dis[2] 0.00106052
11 *155:7 *328:7 0.000110251
12 *155:7 *383:7 0.000110251
13 *155:9 *164:9 0.00688715
14 *155:9 *212:9 0.0101461
15 *155:9 *384:9 0.00159097
16 *155:19 *309:13 0.000290427
17 *155:19 *461:19 3.41998e-06
18 *155:19 *471:15 0.000290427
19 *155:21 *457:23 0.00899621
20 *155:21 *458:23 0.0105164
21 *155:21 *462:19 0.0523131
22 *155:21 *529:13 0.0321051
23 *155:21 *827:9 0.0410252
24 *155:25 gpio_dm0[1] 0
25 *155:25 gpio_dm0[2] 0
26 *155:25 gpio_dm2[1] 0
27 *155:25 *276:23 0
28 *155:25 *309:17 0.00489089
29 *155:25 *342:25 0.0445598
30 *133:13 *155:21 0.285395
*RES
1 *874:gpio_analog_pol[2] *155:7 9.87413 
2 *155:7 *155:9 131.846 
3 *155:9 *155:19 26.8291 
4 *155:19 *155:21 550.633 
5 *155:21 *155:23 8 
6 *155:23 *155:25 569.912 
7 *155:25 gpio_analog_pol[2] 12.4604 
*END

*D_NET *156 0.439024
*CONN
*P gpio_analog_pol[30] O
*I *874:gpio_analog_pol[30] O *D counter_gpio_config_example
*CAP
1 gpio_analog_pol[30] 0.00648444
2 *874:gpio_analog_pol[30] 0.00302078
3 *156:17 0.0573765
4 *156:15 0.0508921
5 *156:13 0.0377673
6 *156:11 0.0407881
7 gpio_analog_pol[30] gpio_dm0[30] 0
8 gpio_analog_pol[30] gpio_inp_dis[30] 0.000437748
9 gpio_analog_pol[30] *365:9 0.000120707
10 gpio_analog_pol[30] *413:17 0.000363588
11 *156:11 *326:11 0
12 *156:11 *334:11 0.000138974
13 *156:11 *435:7 3.86115e-05
14 *156:11 *435:9 0.000438372
15 *156:13 *415:13 0.120781
16 *156:13 *531:13 0.118517
17 *156:13 *533:13 0.00110285
18 *108:19 *156:17 0
19 *109:13 *156:13 0
20 *112:33 gpio_analog_pol[30] 0.000755411
21 *112:33 *156:17 0
*RES
1 *874:gpio_analog_pol[30] *156:11 15.2445 
2 *156:11 *156:13 294.034 
3 *156:13 *156:15 8 
4 *156:15 *156:17 140.791 
5 *156:17 gpio_analog_pol[30] 16.5041 
*END

*D_NET *157 0.314047
*CONN
*P gpio_analog_pol[31] O
*I *874:gpio_analog_pol[31] O *D counter_gpio_config_example
*CAP
1 gpio_analog_pol[31] 0.00704181
2 *874:gpio_analog_pol[31] 0.0090387
3 *157:17 0.0507485
4 *157:15 0.0439619
5 *157:9 0.00539173
6 *157:7 0.0141752
7 gpio_analog_pol[31] gpio_dm0[31] 0
8 gpio_analog_pol[31] gpio_inp_dis[31] 0.000243009
9 gpio_analog_pol[31] *245:13 0
10 *157:7 gpio_slow_sel[37] 0
11 *157:7 *421:7 0
12 *157:7 *440:7 0
13 *157:7 *471:9 0.000994814
14 *157:9 *161:9 0.00537266
15 *157:9 *280:9 0.00079335
16 *157:9 *366:9 0.00214327
17 *157:9 *413:9 0.00714392
18 *157:15 gpio_analog_sel[36] 0.000394595
19 *157:17 *289:9 0.0616556
20 *157:17 *336:9 0.00628701
21 *157:17 *413:17 0.0986613
22 *113:17 gpio_analog_pol[31] 0
*RES
1 *874:gpio_analog_pol[31] *157:7 29.1083 
2 *157:7 *157:9 175.512 
3 *157:9 *157:15 16.7859 
4 *157:15 *157:17 283.498 
5 *157:17 gpio_analog_pol[31] 24.3548 
*END

*D_NET *158 0.292315
*CONN
*P gpio_analog_pol[32] O
*I *874:gpio_analog_pol[32] O *D counter_gpio_config_example
*CAP
1 gpio_analog_pol[32] 0.000384647
2 *874:gpio_analog_pol[32] 0.000183805
3 *158:15 0.0553889
4 *158:13 0.0550043
5 *158:11 0.026284
6 *158:9 0.0264678
7 gpio_analog_pol[32] gpio_dm0[32] 0.000163982
8 gpio_analog_pol[32] gpio_inp_dis[32] 0
9 gpio_analog_pol[32] *726:21 0.000521945
10 *158:9 *273:7 3.05369e-05
11 *158:9 *273:9 3.55389e-06
12 *158:9 *409:11 4.67135e-05
13 *158:11 *195:9 0.00809459
14 *158:11 *234:13 0.0378358
15 *158:11 *236:9 0.000671902
16 *158:11 *245:9 0.075535
17 *158:11 *543:13 0.0008027
18 *158:15 gpio_inp_dis[32] 0.00433184
19 *158:15 *246:53 0
20 *158:15 *332:15 0.000562672
*RES
1 *874:gpio_analog_pol[32] *158:9 9.05202 
2 *158:9 *158:11 1083.69 
3 *158:11 *158:13 8 
4 *158:13 *158:15 149.292 
5 *158:15 gpio_analog_pol[32] 23.3028 
*END

*D_NET *159 0.214509
*CONN
*P gpio_analog_pol[33] O
*I *874:gpio_analog_pol[33] O *D counter_gpio_config_example
*CAP
1 gpio_analog_pol[33] 0.00612477
2 *874:gpio_analog_pol[33] 0.00938312
3 *159:9 0.0327742
4 *159:7 0.0360326
5 gpio_analog_pol[33] gpio_dm0[33] 0
6 gpio_analog_pol[33] *555:17 0.00161439
7 *159:9 *202:9 0.0722104
8 *159:9 *248:9 0
9 *159:9 *289:9 0
10 *159:9 *336:9 0.0399895
11 *159:9 *361:9 0.0019358
12 *159:9 *365:9 0.000775793
13 *159:9 *413:17 0.00633124
14 *115:7 *159:7 0.00038881
15 *115:17 gpio_analog_pol[33] 0
16 *116:7 *159:7 0.000405364
17 *119:9 *159:9 0.00654336
*RES
1 *874:gpio_analog_pol[33] *159:7 30.5251 
2 *159:7 *159:9 176.113 
3 *159:9 gpio_analog_pol[33] 23.4439 
*END

*D_NET *160 0.261126
*CONN
*P gpio_analog_pol[34] O
*I *874:gpio_analog_pol[34] O *D counter_gpio_config_example
*CAP
1 gpio_analog_pol[34] 0.00293687
2 *874:gpio_analog_pol[34] 0.00299569
3 *160:21 0.0567904
4 *160:19 0.0538535
5 *160:17 0.033259
6 *160:15 0.0362547
7 gpio_analog_pol[34] gpio_dm0[34] 0.000635646
8 gpio_analog_pol[34] *556:22 1.64559e-05
9 *160:15 *200:11 0.000864487
10 *160:15 *256:7 4.49417e-05
11 *160:15 *339:29 2.93912e-05
12 *160:15 *405:7 4.4107e-05
13 *160:15 *405:9 7.9281e-06
14 *160:17 *200:11 0.000864144
15 *160:17 *200:13 0.0543886
16 *160:17 *235:13 0.00041626
17 *160:17 *294:31 2.93912e-05
18 *160:17 *368:13 0.0074619
19 *160:17 *368:33 0.000644747
20 *160:17 *368:55 0.00323135
21 *160:17 *368:57 0.00347109
22 *160:17 *378:13 0
23 *160:17 *378:19 0.000171077
24 *160:17 *815:17 0.000936585
25 *160:21 gpio_dm0[34] 0.000963779
26 gpio_analog_en[34] *160:21 0
27 *104:27 *160:17 0.000119992
28 *120:10 *160:15 0.000461151
29 *122:193 *160:17 0.000232597
*RES
1 *874:gpio_analog_pol[34] *160:15 15.0927 
2 *160:15 *160:17 139.279 
3 *160:17 *160:19 8 
4 *160:19 *160:21 143.625 
5 *160:21 gpio_analog_pol[34] 6.958 
*END

*D_NET *161 0.176046
*CONN
*P gpio_analog_pol[35] O
*I *874:gpio_analog_pol[35] O *D counter_gpio_config_example
*CAP
1 gpio_analog_pol[35] 0.00535918
2 *874:gpio_analog_pol[35] 0.00811478
3 *161:9 0.0288972
4 *161:7 0.0316528
5 gpio_analog_pol[35] gpio_dm0[35] 0.00164032
6 gpio_analog_pol[35] gpio_inp_dis[35] 0.000185109
7 gpio_analog_pol[35] *249:17 0.00664931
8 gpio_analog_pol[35] *413:15 0.000471405
9 *161:7 *272:7 0.00116778
10 *161:7 *393:7 0
11 *161:9 *206:9 0.0192969
12 *161:9 *242:9 0
13 *161:9 *248:9 0.050272
14 *161:9 *280:9 0.00617934
15 *161:9 *307:9 0
16 *161:9 *366:9 0.0026684
17 *161:9 *413:9 0.00780519
18 *125:7 *161:7 0.000313853
19 *157:9 *161:9 0.00537266
*RES
1 *874:gpio_analog_pol[35] *161:7 29.1512 
2 *161:7 *161:9 122.547 
3 *161:9 gpio_analog_pol[35] 24.5135 
*END

*D_NET *162 0.140941
*CONN
*P gpio_analog_pol[36] O
*I *874:gpio_analog_pol[36] O *D counter_gpio_config_example
*CAP
1 gpio_analog_pol[36] 0.0111292
2 *874:gpio_analog_pol[36] 0.00512508
3 *162:9 0.0391237
4 *162:7 0.0331196
5 gpio_analog_pol[36] gpio_dm0[36] 0
6 gpio_analog_pol[36] gpio_inp_dis[36] 0.000258573
7 gpio_analog_pol[36] *193:15 0
8 *162:7 *340:7 0
9 *162:7 *352:7 0.000193454
10 *162:7 *404:9 0
11 *162:9 *178:17 0.0035617
12 *162:9 *179:9 0.00298386
13 *162:9 *193:9 0.0003292
14 *162:9 *268:17 0.00412152
15 *162:9 *284:9 0.00440063
16 *162:9 *328:9 0
17 *162:9 *333:9 0.00590185
18 *162:9 *374:9 0.0295182
19 *162:9 *418:9 0.00117447
20 gpio_analog_en[36] gpio_analog_pol[36] 0
*RES
1 *874:gpio_analog_pol[36] *162:7 21.2515 
2 *162:7 *162:9 121.277 
3 *162:9 gpio_analog_pol[36] 33.3447 
*END

*D_NET *163 0.0838377
*CONN
*P gpio_analog_pol[37] O
*I *874:gpio_analog_pol[37] O *D counter_gpio_config_example
*CAP
1 gpio_analog_pol[37] 0.00700167
2 *874:gpio_analog_pol[37] 0.00771782
3 *163:9 0.0229822
4 *163:7 0.0236983
5 gpio_analog_pol[37] gpio_dm0[37] 0
6 gpio_analog_pol[37] gpio_inp_dis[37] 0.00164725
7 gpio_analog_pol[37] *295:24 0
8 gpio_analog_pol[37] *559:9 0
9 *163:7 *279:7 0
10 *163:7 *284:7 0.00107041
11 *163:9 *202:9 0
12 *163:9 *248:9 0.0182595
13 *163:9 *280:9 0.00105777
14 *163:9 *291:9 0
15 *163:9 *307:9 0
16 *91:7 *163:7 0.000402768
17 *119:9 *163:9 0
*RES
1 *874:gpio_analog_pol[37] *163:7 29.4947 
2 *163:7 *163:9 63.5227 
3 *163:9 gpio_analog_pol[37] 24.7655 
*END

*D_NET *164 0.194551
*CONN
*P gpio_analog_pol[38] O
*I *874:gpio_analog_pol[38] O *D counter_gpio_config_example
*CAP
1 gpio_analog_pol[38] 0.000164963
2 *874:gpio_analog_pol[38] 0.000571425
3 *164:13 0.0148304
4 *164:11 0.0146655
5 *164:9 0.00706006
6 *164:7 0.00763149
7 gpio_analog_pol[38] gpio_dm0[38] 0.000290628
8 gpio_analog_pol[38] *560:19 0
9 *164:7 *220:7 0.000105587
10 *164:7 *359:7 0.000105587
11 *164:9 *212:9 0.00887884
12 *164:9 *384:9 0.0156181
13 *164:13 *168:19 2.35373e-05
14 *164:13 *168:21 0.000192026
15 *164:13 *212:13 0.000389658
16 *164:13 *296:13 0.0527988
17 *164:13 *300:13 0.00031657
18 *164:13 *300:21 0.00412952
19 *164:13 *340:17 0.0540202
20 *164:13 *344:27 8.65763e-05
21 *164:13 *344:35 0.00565898
22 *125:19 *164:9 0
23 *125:19 *164:13 0.000125646
24 *155:9 *164:9 0.00688715
*RES
1 *874:gpio_analog_pol[38] *164:7 9.78827 
2 *164:7 *164:9 321.299 
3 *164:9 *164:11 8 
4 *164:11 *164:13 105.5 
5 *164:13 gpio_analog_pol[38] 12.4018 
*END

*D_NET *165 0.127112
*CONN
*P gpio_analog_pol[39] O
*I *874:gpio_analog_pol[39] O *D counter_gpio_config_example
*CAP
1 gpio_analog_pol[39] 0.00340629
2 *874:gpio_analog_pol[39] 0.000193154
3 *165:13 0.031835
4 *165:11 0.0284288
5 *165:9 0.0286918
6 *165:7 0.0288849
7 gpio_analog_pol[39] *253:25 0
8 gpio_analog_pol[39] *431:13 0.0051381
9 gpio_analog_pol[39] *561:25 0
10 gpio_analog_pol[39] *693:9 0
11 *165:7 *368:11 3.49028e-05
12 *165:9 *214:17 0
13 *165:9 *270:9 0
14 *165:9 *368:11 7.58245e-05
15 *165:9 *551:9 0
16 *149:11 *165:7 3.77593e-05
17 *149:11 *165:9 0.000385298
*RES
1 *874:gpio_analog_pol[39] *165:7 0.662667 
2 *165:7 *165:9 82.8744 
3 *165:9 *165:11 8 
4 *165:11 *165:13 644.566 
5 *165:13 gpio_analog_pol[39] 46.2825 
*END

*D_NET *166 0.341797
*CONN
*P gpio_analog_pol[3] O
*I *874:gpio_analog_pol[3] O *D counter_gpio_config_example
*CAP
1 gpio_analog_pol[3] 7.02862e-05
2 *874:gpio_analog_pol[3] 0.000177916
3 *166:17 0.130655
4 *166:15 0.130584
5 *166:13 0.0180086
6 *166:11 0.0180086
7 *166:9 0.0198874
8 *166:7 0.0200654
9 *166:9 *170:11 0
10 *166:13 *269:13 0
11 *166:17 gpio_dm0[3] 0
12 *166:17 *562:17 0
13 *92:7 *166:7 3.37536e-05
14 *92:7 *166:9 5.66735e-06
15 *92:9 *166:9 0.0040492
16 *108:11 *166:7 3.9421e-05
17 *108:11 *166:9 0.000211091
18 *122:195 *166:17 0
*RES
1 *874:gpio_analog_pol[3] *166:7 0.662667 
2 *166:7 *166:9 60.8496 
3 *166:9 *166:11 8 
4 *166:11 *166:13 53.368 
5 *166:13 *166:15 8 
6 *166:15 *166:17 380.673 
7 *166:17 gpio_analog_pol[3] 0.269733 
*END

*D_NET *167 0.186453
*CONN
*P gpio_analog_pol[40] O
*I *874:gpio_analog_pol[40] O *D counter_gpio_config_example
*CAP
1 gpio_analog_pol[40] 0.000219505
2 *874:gpio_analog_pol[40] 0.000194567
3 *167:13 0.0422278
4 *167:11 0.0420083
5 *167:9 0.0439179
6 *167:7 0.0441124
7 gpio_analog_pol[40] *212:13 0.000435532
8 gpio_analog_pol[40] *563:19 7.78255e-05
9 *167:7 *286:11 4.58975e-05
10 *167:7 *399:7 4.03797e-05
11 *167:9 *182:11 0
12 *167:9 *286:11 0.00061911
13 *167:9 *399:7 5.5178e-06
14 *167:9 *399:9 0.0125483
15 *167:13 *255:13 0
16 *167:13 *255:17 0
17 *167:13 *563:19 0
*RES
1 *874:gpio_analog_pol[40] *167:7 0.662667 
2 *167:7 *167:9 143.41 
3 *167:9 *167:11 8 
4 *167:11 *167:13 954.452 
5 *167:13 gpio_analog_pol[40] 17.8165 
*END

*D_NET *168 0.512349
*CONN
*P gpio_analog_pol[41] O
*I *874:gpio_analog_pol[41] O *D counter_gpio_config_example
*CAP
1 gpio_analog_pol[41] 0.000239979
2 *874:gpio_analog_pol[41] 0.00429072
3 *168:21 0.0245225
4 *168:19 0.0270029
5 *168:9 0.026472
6 *168:7 0.0280423
7 gpio_analog_pol[41] gpio_dm0[41] 0
8 gpio_analog_pol[41] *564:14 0
9 *168:7 *215:7 0.000490851
10 *168:9 *349:9 0.00817805
11 *168:9 *457:19 2.33476e-05
12 *168:9 *529:9 0.0228516
13 *168:9 *821:13 0
14 *168:19 *296:9 0
15 *168:19 *340:13 7.91016e-05
16 *168:19 *344:27 0.000136336
17 *168:21 *212:13 0.0120014
18 *168:21 *296:13 0.00641534
19 *168:21 *344:35 0.140029
20 *168:21 *433:22 0
21 *102:9 *168:9 0.049596
22 *125:19 *168:19 0.00229516
23 *125:21 *168:21 0.159467
24 *142:7 *168:7 0
25 *164:13 *168:19 2.35373e-05
26 *164:13 *168:21 0.000192026
*RES
1 *874:gpio_analog_pol[41] *168:7 17.3445 
2 *168:7 *168:9 931.211 
3 *168:9 *168:19 43.2961 
4 *168:19 *168:21 1705.76 
5 *168:21 gpio_analog_pol[41] 20.0543 
*END

*D_NET *169 0.281728
*CONN
*P gpio_analog_pol[42] O
*I *874:gpio_analog_pol[42] O *D counter_gpio_config_example
*CAP
1 gpio_analog_pol[42] 8.86941e-05
2 *874:gpio_analog_pol[42] 0.00360075
3 *169:25 0.00369715
4 *169:23 0.00367742
5 *169:21 0.00728883
6 *169:19 0.00721987
7 *169:17 0.0704975
8 *169:15 0.0704975
9 *169:13 0.0148734
10 *169:11 0.0184741
11 *169:11 *362:7 5.083e-05
12 *169:11 *362:9 0.000755461
13 *169:11 *727:29 0
14 *169:13 *214:13 0.0125229
15 *169:13 *243:13 0.000104065
16 *169:13 *419:13 0.000519779
17 *169:13 *674:13 0
18 *169:13 *749:25 0.0403037
19 *169:17 *442:15 0.00419557
20 *169:17 *443:15 0.0232046
21 *169:25 gpio_dm0[42] 0.00015553
22 *169:25 gpio_inp_dis[42] 0
23 *109:11 *169:11 0
*RES
1 *874:gpio_analog_pol[42] *169:11 18.2069 
2 *169:11 *169:13 582.589 
3 *169:13 *169:15 8 
4 *169:15 *169:17 236.361 
5 *169:17 *169:19 8 
6 *169:19 *169:21 160.536 
7 *169:21 *169:23 1.57429 
8 *169:23 *169:25 85.7571 
9 *169:25 gpio_analog_pol[42] 2.14393 
*END

*D_NET *170 0.273095
*CONN
*P gpio_analog_pol[43] O
*I *874:gpio_analog_pol[43] O *D counter_gpio_config_example
*CAP
1 gpio_analog_pol[43] 6.21287e-05
2 *874:gpio_analog_pol[43] 0.00375802
3 *170:21 0.0293533
4 *170:19 0.0292912
5 *170:17 0.0966754
6 *170:15 0.0966754
7 *170:13 0.00169321
8 *170:11 0.00545124
9 *170:11 *337:11 0.000114713
10 *170:13 *214:13 0.00457172
11 *170:13 *674:13 0
12 *170:17 *221:11 0.00519982
13 *170:17 *385:9 0
14 *170:17 *551:9 0
15 *170:21 gpio_dm0[43] 0
16 *170:21 *566:14 0
17 *108:11 *170:11 0.000248777
18 *166:9 *170:11 0
*RES
1 *874:gpio_analog_pol[43] *170:11 18.3787 
2 *170:11 *170:13 58.6007 
3 *170:13 *170:15 8 
4 *170:15 *170:17 287.709 
5 *170:17 *170:19 8 
6 *170:19 *170:21 675.058 
7 *170:21 gpio_analog_pol[43] 1.50179 
*END

*D_NET *171 0.333492
*CONN
*P gpio_analog_pol[4] O
*I *874:gpio_analog_pol[4] O *D counter_gpio_config_example
*CAP
1 gpio_analog_pol[4] 0.00324222
2 *874:gpio_analog_pol[4] 0.000210702
3 *171:19 0.00959976
4 *171:9 0.130216
5 *171:7 0.124069
6 gpio_analog_pol[4] gpio_dm0[4] 0.00191955
7 gpio_analog_pol[4] *567:31 0
8 *171:7 *172:7 3.86115e-05
9 *171:7 *172:9 5.5178e-06
10 *171:7 *435:7 3.86115e-05
11 *171:9 *172:9 0.0157894
12 *171:9 *368:55 7.65779e-05
13 *171:9 *435:7 5.5178e-06
14 *171:9 *435:9 0.038149
15 *171:19 gpio_dm1[4] 0
16 *171:19 *348:13 0.000152793
17 *171:19 *435:15 0.00997354
18 *171:19 *567:31 0
19 gpio_analog_en[4] gpio_analog_pol[4] 5.27114e-06
*RES
1 *874:gpio_analog_pol[4] *171:7 0.662667 
2 *171:7 *171:9 432.137 
3 *171:9 *171:19 43.1451 
4 *171:19 gpio_analog_pol[4] 8.17693 
*END

*D_NET *172 0.354121
*CONN
*P gpio_analog_pol[5] O
*I *874:gpio_analog_pol[5] O *D counter_gpio_config_example
*CAP
1 gpio_analog_pol[5] 0.000128655
2 *874:gpio_analog_pol[5] 0.000210702
3 *172:17 0.0901114
4 *172:15 0.0899828
5 *172:13 0.0222098
6 *172:11 0.0222098
7 *172:9 0.0533564
8 *172:7 0.0535671
9 *172:7 *363:7 3.86115e-05
10 *172:7 *363:9 5.5178e-06
11 *172:9 *363:9 0.00515804
12 *172:9 *368:55 0.000137276
13 *172:17 gpio_dm0[5] 0.000384918
14 *172:17 gpio_inp_dis[5] 0.000786659
15 gpio_analog_en[5] *172:17 0
16 *128:21 *172:17 0
17 *171:7 *172:7 3.86115e-05
18 *171:7 *172:9 5.5178e-06
19 *171:9 *172:9 0.0157894
*RES
1 *874:gpio_analog_pol[5] *172:7 0.662667 
2 *172:7 *172:9 180.891 
3 *172:9 *172:11 8 
4 *172:11 *172:13 67.9653 
5 *172:13 *172:15 8 
6 *172:15 *172:17 260.631 
7 *172:17 gpio_analog_pol[5] 0.493733 
*END

*D_NET *173 0.726696
*CONN
*P gpio_analog_pol[6] O
*I *874:gpio_analog_pol[6] O *D counter_gpio_config_example
*CAP
1 gpio_analog_pol[6] 3.98301e-05
2 *874:gpio_analog_pol[6] 0.00385009
3 *173:13 0.139684
4 *173:11 0.139644
5 *173:9 0.0172396
6 *173:7 0.0210897
7 *173:7 *416:7 0.000637037
8 *173:7 *529:7 0.000635578
9 *173:9 *260:9 0.0480859
10 *173:9 *349:9 0.0694115
11 *173:9 *691:13 0
12 *173:13 gpio_dm0[6] 0
13 *173:13 gpio_inp_dis[6] 0.00183189
14 *173:13 *569:25 0.284547
15 *129:13 *173:13 0
*RES
1 *874:gpio_analog_pol[6] *173:7 17.5163 
2 *173:7 *173:9 894.588 
3 *173:9 *173:11 8 
4 *173:11 *173:13 563.097 
5 *173:13 gpio_analog_pol[6] 0.157733 
*END

*D_NET *174 0.762587
*CONN
*P gpio_analog_pol[7] O
*I *874:gpio_analog_pol[7] O *D counter_gpio_config_example
*CAP
1 gpio_analog_pol[7] 0.00136441
2 *874:gpio_analog_pol[7] 0.00362079
3 *174:13 0.194638
4 *174:11 0.193273
5 *174:9 0.0564818
6 *174:7 0.0601026
7 gpio_analog_pol[7] gpio_dm0[7] 0.00192596
8 gpio_analog_pol[7] gpio_inp_dis[7] 0.00038764
9 *174:7 *302:7 4.05943e-05
10 *174:7 *440:7 0
11 *174:9 *197:9 0.056288
12 *174:9 *204:9 0.00339465
13 *174:9 *249:9 0.0319188
14 *174:9 *283:17 0.0913009
15 *174:9 *377:17 5.70471e-05
16 *174:13 gpio_dm0[7] 0.00711845
17 gpio_analog_en[7] *174:13 0
18 *95:9 *174:9 0.0223191
19 *96:9 *174:9 0.0283325
20 *117:23 *174:9 0.00450185
21 *151:7 *174:7 0.000425321
22 *154:17 *174:9 0.00509552
*RES
1 *874:gpio_analog_pol[7] *174:7 16.0995 
2 *174:7 *174:9 336.937 
3 *174:9 *174:11 8 
4 *174:11 *174:13 557.889 
5 *174:13 gpio_analog_pol[7] 21.8049 
*END

*D_NET *175 0.55006
*CONN
*P gpio_analog_pol[8] O
*I *874:gpio_analog_pol[8] O *D counter_gpio_config_example
*CAP
1 gpio_analog_pol[8] 0.01076
2 *874:gpio_analog_pol[8] 0.000180464
3 *175:13 0.12789
4 *175:11 0.11713
5 *175:9 0.133832
6 *175:7 0.134012
7 gpio_analog_pol[8] gpio_dm0[8] 0
8 gpio_analog_pol[8] gpio_inp_dis[8] 0.00038235
9 gpio_analog_pol[8] *571:26 0.0182709
10 *175:7 *231:7 3.37536e-05
11 *175:7 *436:11 3.81941e-05
12 *175:9 *231:7 4.44052e-06
13 *175:9 *231:9 0.00558495
14 *175:9 *312:9 0
15 *175:9 *436:11 0.00194018
*RES
1 *874:gpio_analog_pol[8] *175:7 0.662667 
2 *175:7 *175:9 402.255 
3 *175:9 *175:11 8 
4 *175:11 *175:13 366.766 
5 *175:13 gpio_analog_pol[8] 47.5892 
*END

*D_NET *176 0.647317
*CONN
*P gpio_analog_pol[9] O
*I *874:gpio_analog_pol[9] O *D counter_gpio_config_example
*CAP
1 gpio_analog_pol[9] 0.00336558
2 *874:gpio_analog_pol[9] 0.00112381
3 *176:21 0.075361
4 *176:19 0.0719954
5 *176:17 0.106113
6 *176:15 0.106113
7 *176:13 0.04447
8 *176:11 0.0455939
9 gpio_analog_pol[9] gpio_dm0[9] 0.00038764
10 gpio_analog_pol[9] gpio_inp_dis[9] 0.000490406
11 gpio_analog_pol[9] *572:9 5.51976e-06
12 *176:11 *265:7 0
13 *176:11 *265:9 0
14 *176:11 *370:13 0.000111122
15 *176:11 *378:21 0.000300098
16 *176:11 *410:19 0
17 *176:11 *546:13 0.000150895
18 *176:13 *205:17 6.90789e-05
19 *176:13 *286:19 0
20 *176:13 *326:19 8.16944e-06
21 *176:13 *372:23 8.26899e-05
22 *176:13 *410:19 0.00154043
23 *176:13 *567:31 0
24 *176:13 *740:18 0.0266284
25 *176:21 *572:9 0
26 *132:13 gpio_analog_pol[9] 0.000246266
27 *132:13 *176:21 0.163161
*RES
1 *874:gpio_analog_pol[9] *176:11 2.56667 
2 *176:11 *176:13 125.593 
3 *176:13 *176:15 8 
4 *176:15 *176:17 331.86 
5 *176:17 *176:19 8 
6 *176:19 *176:21 307.287 
7 *176:21 gpio_analog_pol[9] 8.666 
*END

*D_NET *177 0.372016
*CONN
*P gpio_analog_sel[0] O
*I *874:gpio_analog_sel[0] O *D counter_gpio_config_example
*CAP
1 gpio_analog_sel[0] 0.00342846
2 *874:gpio_analog_sel[0] 0.00697243
3 *177:17 0.141513
4 *177:15 0.138085
5 *177:13 0.029463
6 *177:11 0.0364354
7 gpio_analog_sel[0] gpio_dm2[0] 0.00209331
8 gpio_analog_sel[0] gpio_holdover[0] 0
9 *177:11 *214:11 6.78937e-05
10 *177:11 *376:11 0.000785017
11 *177:11 *419:17 0.00220846
12 *177:11 *683:17 0
13 *177:11 *815:21 0.00112298
14 *177:13 *258:13 0.00654961
15 *177:13 *430:15 0.0032922
16 *177:17 gpio_holdover[0] 0
17 *177:17 *705:45 0
18 *130:13 *177:13 0
*RES
1 *874:gpio_analog_sel[0] *177:11 30.8723 
2 *177:11 *177:13 87.0053 
3 *177:13 *177:15 8 
4 *177:15 *177:17 411.701 
5 *177:17 gpio_analog_sel[0] 8.5596 
*END

*D_NET *178 0.933245
*CONN
*P gpio_analog_sel[10] O
*I *874:gpio_analog_sel[10] O *D counter_gpio_config_example
*CAP
1 gpio_analog_sel[10] 0.000300845
2 *874:gpio_analog_sel[10] 0.00877067
3 *178:21 0.197374
4 *178:19 0.197073
5 *178:17 0.0349142
6 *178:15 0.0351237
7 *178:9 0.00898014
8 *178:9 *184:7 0.000831951
9 *178:9 *193:9 0.00119997
10 *178:9 *268:15 3.38295e-05
11 *178:9 *284:9 0.00872164
12 *178:9 *327:7 0
13 *178:9 *374:9 0.00871112
14 *178:9 *536:7 0
15 *178:15 *206:7 4.08834e-05
16 *178:17 *193:9 0.000118603
17 *178:17 *241:19 0.0114937
18 *178:17 *268:17 0.208146
19 *178:17 *304:9 0.00281948
20 *178:17 *374:9 0.0167122
21 *178:17 *440:9 0.186059
22 *178:21 *354:21 0
23 *178:21 *530:17 0
24 *178:21 *768:9 0
25 *107:9 *178:17 0.00225754
26 *162:9 *178:17 0.0035617
*RES
1 *874:gpio_analog_sel[10] *178:9 43.1027 
2 *178:9 *178:15 16.4424 
3 *178:15 *178:17 2651.08 
4 *178:17 *178:19 8 
5 *178:19 *178:21 566.789 
6 *178:21 gpio_analog_sel[10] 1.15453 
*END

*D_NET *179 1.06957
*CONN
*P gpio_analog_sel[11] O
*I *874:gpio_analog_sel[11] O *D counter_gpio_config_example
*CAP
1 gpio_analog_sel[11] 0.000163914
2 *874:gpio_analog_sel[11] 0.00944221
3 *179:21 0.138985
4 *179:19 0.138821
5 *179:17 0.0575048
6 *179:15 0.0578995
7 *179:9 0.00983684
8 *179:9 *323:7 0.000175134
9 *179:9 *344:17 9.463e-05
10 *179:9 *418:9 0.00867063
11 *179:9 *538:7 0
12 *179:9 *548:7 0
13 *179:17 *184:9 0.222116
14 *179:17 *241:9 0.138576
15 *179:21 gpio_dm2[11] 0
16 *179:21 *311:13 0.284245
17 *143:7 *179:9 5.08904e-05
18 *162:9 *179:9 0.00298386
*RES
1 *874:gpio_analog_sel[11] *179:9 42.1171 
2 *179:9 *179:15 16.8717 
3 *179:15 *179:17 2859.54 
4 *179:17 *179:19 8 
5 *179:19 *179:21 565.501 
6 *179:21 gpio_analog_sel[11] 0.631867 
*END

*D_NET *180 0.88747
*CONN
*P gpio_analog_sel[12] O
*I *874:gpio_analog_sel[12] O *D counter_gpio_config_example
*CAP
1 gpio_analog_sel[12] 2.75747e-05
2 *874:gpio_analog_sel[12] 0.00260908
3 *180:13 0.161806
4 *180:11 0.161779
5 *180:9 0.0774854
6 *180:7 0.0800945
7 *180:9 *194:9 0
8 *180:9 *244:9 0.0117649
9 *180:9 *426:9 0.000141169
10 *180:9 *733:13 0.00233379
11 *180:13 gpio_dm2[12] 0.00183984
12 *180:13 *312:17 0.148025
13 *180:13 *678:19 0
14 *93:17 *180:9 0.228648
15 *105:9 *180:9 0.00237335
16 *122:17 *180:9 0.00293122
17 *127:9 *180:9 0.00521563
18 *142:7 *180:7 5.61967e-05
19 *152:7 *180:7 0.00033979
*RES
1 *874:gpio_analog_sel[12] *180:7 13.5664 
2 *180:7 *180:9 2910.96 
3 *180:9 *180:11 8 
4 *180:11 *180:13 559.147 
5 *180:13 gpio_analog_sel[12] 0.1092 
*END

*D_NET *181 0.700346
*CONN
*P gpio_analog_sel[13] O
*I *874:gpio_analog_sel[13] O *D counter_gpio_config_example
*CAP
1 gpio_analog_sel[13] 0.000248172
2 *874:gpio_analog_sel[13] 0.000173234
3 *181:17 0.0419967
4 *181:15 0.0417485
5 *181:13 0.197741
6 *181:11 0.197741
7 *181:9 0.101829
8 *181:7 0.102002
9 *181:7 *277:11 3.81941e-05
10 *181:7 *530:7 4.4107e-05
11 *181:9 *277:11 0.00239741
12 *181:9 *386:9 0
13 *181:9 *530:7 6.72295e-06
14 *181:9 *530:9 0.0143798
*RES
1 *874:gpio_analog_sel[13] *181:7 0.662667 
2 *181:7 *181:9 319.823 
3 *181:9 *181:11 8 
4 *181:11 *181:13 617.206 
5 *181:13 *181:15 8 
6 *181:15 *181:17 121.699 
7 *181:17 gpio_analog_sel[13] 0.9828 
*END

*D_NET *182 0.87096
*CONN
*P gpio_analog_sel[14] O
*I *874:gpio_analog_sel[14] O *D counter_gpio_config_example
*CAP
1 gpio_analog_sel[14] 8.60883e-05
2 *874:gpio_analog_sel[14] 0.013467
3 *182:17 0.0964906
4 *182:15 0.0964046
5 *182:13 0.220325
6 *182:11 0.233792
7 *182:11 *286:11 0.000521828
8 *182:13 *254:15 0.000237357
9 *182:17 gpio_dm2[14] 0.00038235
10 *182:17 *314:13 0.206683
11 *182:17 *358:17 0
12 *90:7 *182:11 2.96768e-05
13 *90:9 *182:11 0.00254097
14 *167:9 *182:11 0
*RES
1 *874:gpio_analog_sel[14] *182:11 47.7021 
2 *182:11 *182:13 687.146 
3 *182:13 *182:15 8 
4 *182:15 *182:17 402.483 
5 *182:17 gpio_analog_sel[14] 0.3332 
*END

*D_NET *183 1.0876
*CONN
*P gpio_analog_sel[15] O
*I *874:gpio_analog_sel[15] O *D counter_gpio_config_example
*CAP
1 gpio_analog_sel[15] 0.00093704
2 *874:gpio_analog_sel[15] 0.00544026
3 *183:21 0.0933938
4 *183:19 0.0937496
5 *183:9 0.125247
6 *183:7 0.129394
7 gpio_analog_sel[15] gpio_dm2[15] 0
8 *183:7 *196:7 0
9 *183:7 *244:7 0.000355987
10 *183:7 *283:7 0.000420874
11 *183:9 *191:9 0.344627
12 *183:9 *193:17 0.0482205
13 *183:9 *196:9 0.00174791
14 *183:9 *247:9 0.00272894
15 *183:9 *469:11 0
16 *183:9 *822:10 0
17 *183:19 *184:19 0.000680314
18 *183:19 *272:19 0.000664068
19 *183:21 *189:13 0.0037072
20 *183:21 *272:21 0.223745
21 *183:21 *319:19 0.000475779
22 *183:21 *366:13 0.0113579
23 gpio_analog_pol[20] *183:21 0.000329636
24 *96:7 *183:7 0
25 *101:15 *183:19 0.000373116
*RES
1 *874:gpio_analog_sel[15] *183:7 22.4107 
2 *183:7 *183:9 4468.84 
3 *183:9 *183:19 41.5796 
4 *183:19 *183:21 2903.98 
5 *183:21 gpio_analog_sel[15] 35.8489 
*END

*D_NET *184 0.922166
*CONN
*P gpio_analog_sel[16] O
*I *874:gpio_analog_sel[16] O *D counter_gpio_config_example
*CAP
1 gpio_analog_sel[16] 0.000917128
2 *874:gpio_analog_sel[16] 0.00444193
3 *184:21 0.0693214
4 *184:19 0.069672
5 *184:9 0.149178
6 *184:7 0.152352
7 gpio_analog_sel[16] gpio_dm2[16] 0
8 *184:7 *327:7 0.000833428
9 *184:9 *241:9 0.00570616
10 *184:19 *272:19 0.0016799
11 *184:19 *274:9 0.000216264
12 *184:19 *279:13 0.000166377
13 *184:21 *189:13 0.0159752
14 *184:21 *272:21 0.220734
15 *184:21 *274:13 0.00659255
16 *184:21 *316:15 0
17 *184:21 *319:19 0.000597192
18 *184:21 *366:13 0.000105616
19 *95:9 *184:19 4.81033e-05
20 *96:13 *184:21 0
21 *178:9 *184:7 0.000831951
22 *179:17 *184:9 0.222116
23 *183:19 *184:19 0.000680314
*RES
1 *874:gpio_analog_sel[16] *184:7 19.8347 
2 *184:7 *184:9 4318.12 
3 *184:9 *184:19 40.2569 
4 *184:19 *184:21 2362.28 
5 *184:21 gpio_analog_sel[16] 36.025 
*END

*D_NET *185 0.497163
*CONN
*P gpio_analog_sel[17] O
*I *874:gpio_analog_sel[17] O *D counter_gpio_config_example
*CAP
1 gpio_analog_sel[17] 0.00512329
2 *874:gpio_analog_sel[17] 0.0171145
3 *185:19 0.00512329
4 *185:17 0.0725587
5 *185:15 0.0725587
6 *185:13 0.15364
7 *185:11 0.15364
8 *185:9 0.0171145
9 gpio_analog_sel[17] gpio_dm2[17] 0
10 *185:9 *346:11 0
11 *185:9 *787:17 0
12 *185:17 *186:17 0
13 *114:13 *185:9 0.000290585
14 *145:11 *185:9 0
*RES
1 *874:gpio_analog_sel[17] *185:9 44.8971 
2 *185:9 *185:11 8 
3 *185:11 *185:13 3565.24 
4 *185:13 *185:15 8 
5 *185:15 *185:17 213.606 
6 *185:17 *185:19 8 
7 *185:19 gpio_analog_sel[17] 116.984 
*END

*D_NET *186 0.492682
*CONN
*P gpio_analog_sel[18] O
*I *874:gpio_analog_sel[18] O *D counter_gpio_config_example
*CAP
1 gpio_analog_sel[18] 0.00560457
2 *874:gpio_analog_sel[18] 0.0159549
3 *186:19 0.00560457
4 *186:17 0.0439381
5 *186:15 0.0439381
6 *186:13 0.177037
7 *186:11 0.177037
8 *186:9 0.0159549
9 gpio_analog_sel[18] gpio_dm2[18] 0
10 *186:9 *555:11 0.000974085
11 *186:17 *187:17 0
12 *186:17 *403:17 0
13 *103:11 *186:9 0.000421062
14 *144:10 *186:9 0.00621683
15 *185:17 *186:17 0
*RES
1 *874:gpio_analog_sel[18] *186:9 46.1851 
2 *186:9 *186:11 8 
3 *186:11 *186:13 4093.45 
4 *186:13 *186:15 8 
5 *186:15 *186:17 129.285 
6 *186:17 *186:19 8 
7 *186:19 gpio_analog_sel[18] 124.027 
*END

*D_NET *187 0.592979
*CONN
*P gpio_analog_sel[19] O
*I *874:gpio_analog_sel[19] O *D counter_gpio_config_example
*CAP
1 gpio_analog_sel[19] 0.005948
2 *874:gpio_analog_sel[19] 0.00859574
3 *187:19 0.005948
4 *187:17 0.0188048
5 *187:15 0.0188048
6 *187:13 0.102264
7 *187:11 0.11086
8 gpio_analog_sel[19] gpio_dm2[19] 0
9 *187:11 *218:7 3.86115e-05
10 *187:11 *218:9 0.0018768
11 *187:11 *292:11 0.00023239
12 *187:11 *540:11 0
13 *187:11 *738:25 0
14 *187:13 *390:13 0.0046656
15 *187:13 *409:13 0.294673
16 *187:17 *805:25 0.00230703
17 *130:13 *187:13 0.01796
18 *186:17 *187:17 0
*RES
1 *874:gpio_analog_sel[19] *187:11 32.3749 
2 *187:11 *187:13 3752.58 
3 *187:13 *187:15 8 
4 *187:15 *187:17 56.0411 
5 *187:17 *187:19 8 
6 *187:19 gpio_analog_sel[19] 130.365 
*END

*D_NET *188 0.388559
*CONN
*P gpio_analog_sel[1] O
*I *874:gpio_analog_sel[1] O *D counter_gpio_config_example
*CAP
1 gpio_analog_sel[1] 0.00414633
2 *874:gpio_analog_sel[1] 0.000211282
3 *188:13 0.0235331
4 *188:11 0.0193867
5 *188:9 0.131186
6 *188:7 0.131397
7 gpio_analog_sel[1] gpio_dm2[1] 0.000387154
8 gpio_analog_sel[1] *364:17 0.00115981
9 *188:7 *230:7 4.26907e-05
10 *188:7 *415:11 3.86115e-05
11 *188:9 *230:9 0
12 *188:9 *415:11 0.000429768
13 *188:9 *694:17 0.037949
14 *188:13 gpio_inp_dis[2] 0
15 *188:13 *348:13 0.00461957
16 *188:13 *483:11 0.000927717
17 gpio_analog_pol[1] *188:13 0.00506804
18 *89:13 *188:13 0.0280755
19 *100:9 *188:9 0
*RES
1 *874:gpio_analog_sel[1] *188:7 0.662667 
2 *188:7 *188:9 432.137 
3 *188:9 *188:11 8 
4 *188:11 *188:13 89.7979 
5 *188:13 gpio_analog_sel[1] 18.4151 
*END

*D_NET *189 0.986156
*CONN
*P gpio_analog_sel[20] O
*I *874:gpio_analog_sel[20] O *D counter_gpio_config_example
*CAP
1 gpio_analog_sel[20] 0.000978769
2 *874:gpio_analog_sel[20] 0.00304151
3 *189:13 0.0277496
4 *189:11 0.0267708
5 *189:9 0.049057
6 *189:7 0.0520985
7 gpio_analog_sel[20] gpio_dm2[20] 0
8 gpio_analog_sel[20] *321:13 0
9 *189:7 *217:7 0.000426784
10 *189:7 *233:7 0.00015239
11 *189:9 *402:9 0.303629
12 *189:9 *779:18 0.00494133
13 *189:13 gpio_ib_mode_sel[20] 0
14 *189:13 *272:21 0.0138372
15 *189:13 *366:13 0.0524191
16 gpio_analog_pol[20] *189:13 0.00072038
17 *99:9 *189:9 0.314167
18 *101:17 *189:13 0.0779222
19 *105:17 *189:9 0.038562
20 *152:7 *189:7 0
21 *183:21 *189:13 0.0037072
22 *184:21 *189:13 0.0159752
*RES
1 *874:gpio_analog_sel[20] *189:7 14.7685 
2 *189:7 *189:9 3999.08 
3 *189:9 *189:11 8 
4 *189:11 *189:13 150.409 
5 *189:13 gpio_analog_sel[20] 29.7293 
*END

*D_NET *190 0.495514
*CONN
*P gpio_analog_sel[21] O
*I *874:gpio_analog_sel[21] O *D counter_gpio_config_example
*CAP
1 gpio_analog_sel[21] 9.62404e-05
2 *874:gpio_analog_sel[21] 0.000386267
3 *190:33 0.160111
4 *190:31 0.160015
5 *190:29 0.00759978
6 *190:27 0.00792207
7 *190:21 0.0100184
8 *190:19 0.0108138
9 *190:15 0.00139156
10 *190:9 0.00449602
11 *190:7 0.00460844
12 gpio_analog_sel[21] gpio_dm2[21] 0
13 *190:7 *329:7 4.4246e-05
14 *190:7 *412:7 4.4246e-05
15 *190:9 *391:9 0.0052949
16 *190:9 *532:19 0.000981058
17 *190:19 *664:18 0
18 *190:21 *215:31 0.000192341
19 *190:21 *381:17 0.0092822
20 *190:21 *542:13 0.0198568
21 *190:21 *742:9 0.00731268
22 *190:21 *783:13 0.000303193
23 *190:27 *675:5 0
24 *190:29 *542:21 0.0220113
25 *190:29 *743:17 0.00480584
26 *190:33 *322:17 0
27 *190:33 *468:19 0.000116093
28 *104:27 *190:21 0.00115407
29 *132:9 *190:19 0.000215319
30 *135:11 *190:19 0.00251707
31 *142:9 *190:9 0.0260069
32 *143:9 *190:9 0.0279172
*RES
1 *874:gpio_analog_sel[21] *190:7 8.84373 
2 *190:7 *190:9 355.281 
3 *190:9 *190:15 33.48 
4 *190:15 *190:19 41.0704 
5 *190:19 *190:21 52.6923 
6 *190:21 *190:27 28.6032 
7 *190:27 *190:29 240.265 
8 *190:29 *190:31 15 
9 *190:31 *190:33 3635.84 
10 *190:33 gpio_analog_sel[21] 1.86429 
*END

*D_NET *191 0.900389
*CONN
*P gpio_analog_sel[22] O
*I *874:gpio_analog_sel[22] O *D counter_gpio_config_example
*CAP
1 gpio_analog_sel[22] 0.000125279
2 *874:gpio_analog_sel[22] 0.0057054
3 *191:13 0.00828865
4 *191:11 0.00816337
5 *191:9 0.0584941
6 *191:7 0.0641996
7 gpio_analog_sel[22] gpio_dm2[22] 0
8 *191:7 *248:7 0.000865983
9 *191:7 *391:7 4.4977e-05
10 *191:9 *193:17 0.0149474
11 *191:9 *196:9 0.0190038
12 *191:9 *247:9 0.0114052
13 *191:9 *314:9 0.316294
14 *191:9 *469:11 0
15 *191:13 gpio_dm1[23] 0.0104797
16 *99:13 *191:13 0.00642722
17 *102:13 *191:13 0.0313179
18 *183:9 *191:9 0.344627
*RES
1 *874:gpio_analog_sel[22] *191:7 22.4965 
2 *191:7 *191:9 4412.5 
3 *191:9 *191:11 8 
4 *191:11 *191:13 62.2235 
5 *191:13 gpio_analog_sel[22] 10.1854 
*END

*D_NET *192 0.678968
*CONN
*P gpio_analog_sel[23] O
*I *874:gpio_analog_sel[23] O *D counter_gpio_config_example
*CAP
1 gpio_analog_sel[23] 0.00230567
2 *874:gpio_analog_sel[23] 0.00012695
3 *192:17 0.0428409
4 *192:15 0.0405353
5 *192:13 0.0390435
6 *192:11 0.0390435
7 *192:9 0.0593596
8 *192:7 0.0594866
9 gpio_analog_sel[23] gpio_dm2[23] 0
10 *192:9 *236:9 0.232783
11 *192:9 *237:9 0.0406135
12 *192:9 *245:9 0.12276
13 *192:13 *710:17 0
14 *192:17 *324:17 0
15 *89:7 *192:7 3.37768e-05
16 *136:7 *192:7 3.52394e-05
*RES
1 *874:gpio_analog_sel[23] *192:7 8.4144 
2 *192:7 *192:9 2975.4 
3 *192:9 *192:11 8 
4 *192:11 *192:13 112.37 
5 *192:13 *192:15 8 
6 *192:15 *192:17 947.471 
7 *192:17 gpio_analog_sel[23] 49.8489 
*END

*D_NET *193 0.663188
*CONN
*P gpio_analog_sel[24] O
*I *874:gpio_analog_sel[24] O *D counter_gpio_config_example
*CAP
1 gpio_analog_sel[24] 0.00905429
2 *874:gpio_analog_sel[24] 0.00482087
3 *193:17 0.172663
4 *193:15 0.163956
5 *193:9 0.0219585
6 *193:7 0.0264318
7 gpio_analog_sel[24] gpio_dm2[24] 0
8 gpio_analog_sel[24] *314:13 0
9 *193:7 *354:13 0.00105924
10 *193:9 *268:17 0
11 *193:9 *284:9 0.00266408
12 *193:9 *304:9 0.0214073
13 *193:9 *374:9 0.00190798
14 *193:9 *822:10 0.000813907
15 *193:17 *196:9 0.0462214
16 *193:17 *247:9 0.0263691
17 *193:17 *284:9 0.0646096
18 *193:17 *314:9 0.027153
19 *193:17 *328:9 2.6376e-06
20 gpio_analog_pol[36] *193:15 0
21 *99:7 *193:7 0
22 *107:9 *193:9 0.00556027
23 *107:9 *193:17 0.00168664
24 *141:7 *193:7 3.25149e-05
25 *150:9 *193:17 0
26 *162:9 *193:9 0.0003292
27 *178:9 *193:9 0.00119997
28 *178:17 *193:9 0.000118603
29 *183:9 *193:17 0.0482205
30 *191:9 *193:17 0.0149474
*RES
1 *874:gpio_analog_sel[24] *193:7 21.4661 
2 *193:7 *193:9 600.901 
3 *193:9 *193:15 16.8717 
4 *193:15 *193:17 677.753 
5 *193:17 gpio_analog_sel[24] 31.4295 
*END

*D_NET *194 0.460111
*CONN
*P gpio_analog_sel[25] O
*I *874:gpio_analog_sel[25] O *D counter_gpio_config_example
*CAP
1 gpio_analog_sel[25] 0.0108737
2 *874:gpio_analog_sel[25] 0.0028835
3 *194:9 0.0884959
4 *194:7 0.0805057
5 gpio_analog_sel[25] gpio_dm2[25] 0.000428436
6 gpio_analog_sel[25] *326:25 0.00329885
7 *194:7 gpio_ib_mode_sel[36] 0
8 *194:7 *215:7 0.000294044
9 *194:9 *244:9 0.0236679
10 *194:9 *369:9 0.229749
11 *194:9 *733:13 0.00697185
12 *194:9 *778:13 0.0049857
13 *93:17 *194:9 0
14 *105:17 *194:9 0.00707954
15 *122:17 *194:9 0.00087741
16 *180:9 *194:9 0
*RES
1 *874:gpio_analog_sel[25] *194:7 13.9099 
2 *194:7 *194:9 2925.04 
3 *194:9 gpio_analog_sel[25] 40.6079 
*END

*D_NET *195 0.577203
*CONN
*P gpio_analog_sel[26] O
*I *874:gpio_analog_sel[26] O *D counter_gpio_config_example
*CAP
1 gpio_analog_sel[26] 0.00160763
2 *874:gpio_analog_sel[26] 0.000211337
3 *195:13 0.0524568
4 *195:11 0.0508492
5 *195:9 0.0772398
6 *195:7 0.0774512
7 gpio_analog_sel[26] gpio_dm2[26] 0.000469403
8 *195:7 *211:11 3.05609e-05
9 *195:7 *326:11 3.11601e-05
10 *195:9 *200:13 0.118562
11 *195:9 *237:9 0.184733
12 *195:9 *368:57 0
13 *195:13 gpio_dm2[26] 0.00536344
14 *195:13 gpio_holdover[26] 0.000102852
15 *195:13 *723:9 0
16 *158:11 *195:9 0.00809459
*RES
1 *874:gpio_analog_sel[26] *195:7 8.47353 
2 *195:7 *195:9 450.606 
3 *195:9 *195:11 8 
4 *195:11 *195:13 146.502 
5 *195:13 gpio_analog_sel[26] 22.7001 
*END

*D_NET *196 0.610249
*CONN
*P gpio_analog_sel[27] O
*I *874:gpio_analog_sel[27] O *D counter_gpio_config_example
*CAP
1 gpio_analog_sel[27] 0.00694004
2 *874:gpio_analog_sel[27] 0.00514964
3 *196:9 0.0946231
4 *196:7 0.0928327
5 gpio_analog_sel[27] gpio_dm2[27] 0.0115174
6 gpio_analog_sel[27] gpio_holdover[27] 0
7 gpio_analog_sel[27] *372:29 0
8 *196:7 *283:7 0.000420874
9 *196:7 *306:7 0.00116458
10 *196:9 *247:9 0.0710532
11 *196:9 *268:9 0
12 *196:9 *284:9 0
13 *196:9 *314:9 0.0380855
14 *196:9 *328:9 0.221489
15 *183:7 *196:7 0
16 *183:9 *196:9 0.00174791
17 *191:9 *196:9 0.0190038
18 *193:17 *196:9 0.0462214
*RES
1 *874:gpio_analog_sel[27] *196:7 22.7971 
2 *196:7 *196:9 538.761 
3 *196:9 gpio_analog_sel[27] 48.8001 
*END

*D_NET *197 0.428999
*CONN
*P gpio_analog_sel[28] O
*I *874:gpio_analog_sel[28] O *D counter_gpio_config_example
*CAP
1 gpio_analog_sel[28] 0.0119456
2 *874:gpio_analog_sel[28] 0.00382113
3 *197:9 0.0740964
4 *197:7 0.065972
5 gpio_analog_sel[28] gpio_dm2[28] 0
6 gpio_analog_sel[28] gpio_holdover[28] 0
7 gpio_analog_sel[28] *329:27 0
8 *197:7 *224:7 9.59485e-05
9 *197:7 *565:7 0.000447116
10 *197:9 *249:9 0.02364
11 *197:9 *274:9 0.000117896
12 *197:9 *283:17 0.0145074
13 *197:9 *325:9 0.171058
14 *197:9 *470:11 0.00160335
15 *95:9 *197:9 0.005406
16 *123:7 *197:7 0
17 *174:9 *197:9 0.056288
*RES
1 *874:gpio_analog_sel[28] *197:7 16.4429 
2 *197:7 *197:9 415.763 
3 *197:9 gpio_analog_sel[28] 37.3356 
*END

*D_NET *198 0.415031
*CONN
*P gpio_analog_sel[29] O
*I *874:gpio_analog_sel[29] O *D counter_gpio_config_example
*CAP
1 gpio_analog_sel[29] 0.00580251
2 *874:gpio_analog_sel[29] 0.00851062
3 *198:9 0.100224
4 *198:7 0.102932
5 gpio_analog_sel[29] gpio_dm2[29] 0.000643783
6 gpio_analog_sel[29] *330:33 0.000461218
7 *198:7 *259:15 1.40476e-05
8 *198:7 *285:7 0.00164592
9 *198:7 *550:7 0.00172059
10 *198:7 *554:7 0
11 *198:9 *285:9 0
12 *198:9 *327:9 0.17102
13 *198:9 *538:9 0.022057
*RES
1 *874:gpio_analog_sel[29] *198:7 31.7272 
2 *198:7 *198:9 415.763 
3 *198:9 gpio_analog_sel[29] 22.35 
*END

*D_NET *199 0.66817
*CONN
*P gpio_analog_sel[2] O
*I *874:gpio_analog_sel[2] O *D counter_gpio_config_example
*CAP
1 gpio_analog_sel[2] 0.00641888
2 *874:gpio_analog_sel[2] 4.55709e-05
3 *199:15 0.0205921
4 *199:13 0.0141733
5 *199:11 0.209146
6 *199:9 0.209191
7 gpio_analog_sel[2] *727:29 0
8 *199:11 *210:10 0.197109
9 *199:15 *353:13 0.00992551
10 *92:13 *199:15 0.00156835
*RES
1 *874:gpio_analog_sel[2] *199:9 9.04593 
2 *199:9 *199:11 64.6315 
3 *199:11 *199:13 0.891 
4 *199:13 *199:15 56.5413 
5 *199:15 gpio_analog_sel[2] 23.1396 
*END

*D_NET *200 0.493137
*CONN
*P gpio_analog_sel[30] O
*I *874:gpio_analog_sel[30] O *D counter_gpio_config_example
*CAP
1 gpio_analog_sel[30] 0.0013502
2 *874:gpio_analog_sel[30] 0.00179896
3 *200:17 0.0544294
4 *200:15 0.0530792
5 *200:13 0.0852955
6 *200:11 0.0870945
7 gpio_analog_sel[30] gpio_dm2[30] 0.00166236
8 gpio_analog_sel[30] *462:15 0.000115147
9 *200:11 *270:7 3.64947e-05
10 *200:11 *335:11 4.4173e-05
11 *200:13 *234:13 0.00124878
12 *200:13 *237:9 0.0127073
13 *200:13 *368:57 0.0102106
14 *200:13 *543:13 0.00156098
15 *200:17 gpio_dm2[30] 0.00430796
16 *200:17 gpio_out[30] 0
17 *120:8 *200:13 3.01406e-05
18 *120:10 *200:11 0.00127934
19 *120:10 *200:13 0.00220707
20 *160:15 *200:11 0.000864487
21 *160:17 *200:11 0.000864144
22 *160:17 *200:13 0.0543886
23 *195:9 *200:13 0.118562
*RES
1 *874:gpio_analog_sel[30] *200:11 14.6513 
2 *200:11 *200:13 372.4 
3 *200:13 *200:15 8 
4 *200:15 *200:17 146.587 
5 *200:17 gpio_analog_sel[30] 21.3028 
*END

*D_NET *201 0.404
*CONN
*P gpio_analog_sel[31] O
*I *874:gpio_analog_sel[31] O *D counter_gpio_config_example
*CAP
1 gpio_analog_sel[31] 0.00937162
2 *874:gpio_analog_sel[31] 0.00711529
3 *201:9 0.0709383
4 *201:7 0.068682
5 gpio_analog_sel[31] gpio_dm2[31] 0
6 *201:7 *264:7 0
7 *201:7 *288:7 0
8 *201:7 *665:14 3.97574e-06
9 *201:9 *220:17 0.00747098
10 *201:9 *272:9 0.014003
11 *201:9 *288:9 0.139109
12 *201:9 *379:13 0.0614479
13 *201:9 *383:9 0.00665298
14 *201:9 *396:15 0.00122386
15 *201:9 *396:17 0.017981
16 *135:9 *201:7 0
17 *150:9 *201:9 0
*RES
1 *874:gpio_analog_sel[31] *201:7 24.1709 
2 *201:7 *201:9 338.46 
3 *201:9 gpio_analog_sel[31] 29.742 
*END

*D_NET *202 0.296478
*CONN
*P gpio_analog_sel[32] O
*I *874:gpio_analog_sel[32] O *D counter_gpio_config_example
*CAP
1 gpio_analog_sel[32] 0.00625274
2 *874:gpio_analog_sel[32] 0.00695121
3 *202:9 0.0527695
4 *202:7 0.0534679
5 gpio_analog_sel[32] *334:17 0.00101088
6 *202:7 *424:7 0.00189631
7 *202:9 *285:9 0.0889692
8 *202:9 *327:9 0
9 *202:9 *413:17 0.00160279
10 *202:9 *414:9 0.00171154
11 *119:9 *202:9 0.00840378
12 *150:7 *202:7 0.00123156
13 *159:9 *202:9 0.0722104
14 *163:9 *202:9 0
*RES
1 *874:gpio_analog_sel[32] *202:7 30.6968 
2 *202:7 *202:9 273.851 
3 *202:9 gpio_analog_sel[32] 23.3132 
*END

*D_NET *203 0.21947
*CONN
*P gpio_analog_sel[33] O
*I *874:gpio_analog_sel[33] O *D counter_gpio_config_example
*CAP
1 gpio_analog_sel[33] 0.00322204
2 *874:gpio_analog_sel[33] 0.00240793
3 *203:17 0.0591925
4 *203:15 0.0559704
5 *203:13 0.0330527
6 *203:11 0.0354607
7 gpio_analog_sel[33] gpio_dm2[33] 0.000203851
8 gpio_analog_sel[33] gpio_holdover[33] 0
9 gpio_analog_sel[33] gpio_out[33] 0
10 *203:11 *294:31 0.000279527
11 *203:11 *315:7 4.74136e-05
12 *203:11 *315:9 0.000399547
13 *203:11 *319:7 3.41368e-05
14 *203:11 *319:9 0.000426953
15 *203:13 *246:23 0.00260903
16 *203:13 *246:35 0.0111951
17 *203:13 *246:37 0.0146598
18 *203:17 gpio_holdover[33] 0
19 *203:17 gpio_out[33] 0
20 *203:17 *330:19 0
21 *152:15 *203:17 0.000308381
*RES
1 *874:gpio_analog_sel[33] *203:11 14.5576 
2 *203:11 *203:13 115.311 
3 *203:13 *203:15 8 
4 *203:15 *203:17 149.121 
5 *203:17 gpio_analog_sel[33] 7.126 
*END

*D_NET *204 0.194878
*CONN
*P gpio_analog_sel[34] O
*I *874:gpio_analog_sel[34] O *D counter_gpio_config_example
*CAP
1 gpio_analog_sel[34] 0.0134051
2 *874:gpio_analog_sel[34] 0.002615
3 *204:9 0.0539453
4 *204:7 0.0431552
5 gpio_analog_sel[34] gpio_dm2[34] 0
6 gpio_analog_sel[34] *283:15 0.000283821
7 gpio_analog_sel[34] *380:17 0
8 gpio_analog_sel[34] *556:17 0
9 *204:7 *306:7 0.000544011
10 *204:7 *307:7 0.000549125
11 *204:9 *249:9 0
12 *204:9 *309:9 0.00661674
13 *204:9 *325:9 0
14 *204:9 *377:9 0.00168389
15 *204:9 *377:17 0.0106112
16 *204:9 *471:11 0.00264195
17 *115:9 *204:9 0.0541593
18 *117:23 *204:9 0.00127259
19 *174:9 *204:9 0.00339465
*RES
1 *874:gpio_analog_sel[34] *204:7 15.4125 
2 *204:7 *204:9 179.54 
3 *204:9 gpio_analog_sel[34] 38.6721 
*END

*D_NET *205 0.24734
*CONN
*P gpio_analog_sel[35] O
*I *874:gpio_analog_sel[35] O *D counter_gpio_config_example
*CAP
1 gpio_analog_sel[35] 0.0127179
2 *874:gpio_analog_sel[35] 0.00290726
3 *205:21 0.0138779
4 *205:19 0.00115999
5 *205:17 0.0335901
6 *205:15 0.0335901
7 *205:13 0.00563038
8 *205:11 0.00853765
9 gpio_analog_sel[35] gpio_dm2[35] 0.000205708
10 gpio_analog_sel[35] gpio_out[35] 0
11 *205:11 *293:11 0.000120196
12 *205:13 *282:13 0.0192386
13 *205:13 *415:13 0.00132975
14 *205:13 *479:11 0
15 *205:17 *286:19 0.000246011
16 *205:17 *372:23 0.0028713
17 *205:17 *377:15 0.000259171
18 *205:17 *410:19 0.0019394
19 *205:17 *553:12 0.000300404
20 *205:17 *661:17 0.00162857
21 *205:17 *672:11 0.0212669
22 *205:17 *691:9 0.0400628
23 *205:17 *694:9 0.00119293
24 *205:17 *695:8 0.00015726
25 *205:17 *696:8 0.000193757
26 *205:17 *705:29 0.00682314
27 *205:17 *716:17 0.00141589
28 *205:17 *716:19 0.000153178
29 *205:17 *787:9 3.33299e-05
30 *205:17 *793:11 0.00715692
31 *205:17 *822:6 0.00384678
32 *205:17 *823:6 0.0012873
33 *205:17 *825:8 4.91347e-05
34 *205:17 *826:10 0.00168349
35 *205:21 *349:9 0.0061893
36 *94:11 *205:11 0
37 *102:9 *205:21 0.00618713
38 *122:195 *205:11 0.000541225
39 *124:11 *205:11 6.89605e-05
40 *146:17 *205:17 0.000523536
41 *148:13 *205:13 0.00828796
42 *176:13 *205:17 6.90789e-05
*RES
1 *874:gpio_analog_sel[35] *205:11 15.0461 
2 *205:11 *205:13 247.349 
3 *205:13 *205:15 8 
4 *205:15 *205:17 127.911 
5 *205:17 *205:19 8 
6 *205:19 *205:21 79.7293 
7 *205:21 gpio_analog_sel[35] 36.3612 
*END

*D_NET *206 0.0822502
*CONN
*P gpio_analog_sel[36] O
*I *874:gpio_analog_sel[36] O *D counter_gpio_config_example
*CAP
1 gpio_analog_sel[36] 0.00750114
2 *874:gpio_analog_sel[36] 0.00902871
3 *206:9 0.0175749
4 *206:7 0.0191024
5 gpio_analog_sel[36] gpio_dm2[36] 0.000520844
6 gpio_analog_sel[36] gpio_out[36] 0
7 *206:7 *247:7 0
8 *206:7 *304:7 0
9 *206:7 *542:7 0.000224517
10 *206:9 *242:9 0.00085834
11 *206:9 *280:9 0.00408118
12 *206:9 *307:9 0.00112727
13 *206:9 *366:9 0.00216246
14 *133:7 *206:7 0.000336094
15 *157:15 gpio_analog_sel[36] 0.000394595
16 *161:9 *206:9 0.0192969
17 *178:15 *206:7 4.08834e-05
*RES
1 *874:gpio_analog_sel[36] *206:7 28.9795 
2 *206:7 *206:9 47.0213 
3 *206:9 gpio_analog_sel[36] 25.3217 
*END

*D_NET *207 0.0414752
*CONN
*P gpio_analog_sel[37] O
*I *874:gpio_analog_sel[37] O *D counter_gpio_config_example
*CAP
1 gpio_analog_sel[37] 0.000991073
2 *874:gpio_analog_sel[37] 0.0153491
3 *207:9 0.00463757
4 *207:7 0.0189956
5 gpio_analog_sel[37] *823:16 0.00023279
6 *207:7 *349:7 0.000633545
7 *207:7 *366:7 0
8 *207:7 *529:7 0.000635578
9 *207:9 *427:21 0
10 *207:9 *558:20 0
*RES
1 *874:gpio_analog_sel[37] *207:7 43.6197 
2 *207:7 *207:9 80.4336 
3 *207:9 gpio_analog_sel[37] 10.5041 
*END

*D_NET *208 0.123394
*CONN
*P gpio_analog_sel[38] O
*I *874:gpio_analog_sel[38] O *D counter_gpio_config_example
*CAP
1 gpio_analog_sel[38] 2.35661e-05
2 *874:gpio_analog_sel[38] 0.0118797
3 *208:40 0.00938011
4 *208:38 0.0102844
5 *208:32 0.0162705
6 *208:30 0.0185457
7 *208:26 0.0150827
8 *208:26 *237:9 0
9 *208:26 *251:24 0.000162798
10 *208:26 *252:40 0.00373778
11 *208:26 *295:20 5.4605e-05
12 *208:30 *252:40 0.00166689
13 *208:32 *252:40 1.41114e-05
14 *208:32 *252:42 0.0267292
15 *208:38 *832:9 0.00110787
16 *208:38 *833:9 0.00221817
17 *208:40 gpio_dm2[38] 9.35401e-05
18 *208:40 *384:17 0.00308537
19 *208:40 *384:21 0
20 *120:8 *208:26 0.000190842
21 *120:10 *208:26 7.16676e-05
22 *120:10 *208:30 0.00279485
23 *120:10 *208:32 0
*RES
1 *874:gpio_analog_sel[38] *208:26 46.4419 
2 *208:26 *208:30 13.9552 
3 *208:30 *208:32 65.6805 
4 *208:32 *208:38 20.3064 
5 *208:38 *208:40 222.202 
6 *208:40 gpio_analog_sel[38] 0.569643 
*END

*D_NET *209 0.138662
*CONN
*P gpio_analog_sel[39] O
*I *874:gpio_analog_sel[39] O *D counter_gpio_config_example
*CAP
1 gpio_analog_sel[39] 0.00016839
2 *874:gpio_analog_sel[39] 0.000159781
3 *209:13 0.0345283
4 *209:11 0.03436
5 *209:9 0.0297166
6 *209:7 0.0298764
7 *209:7 *353:7 4.4107e-05
8 *209:7 *543:11 5.80806e-05
9 *209:9 *353:7 7.9281e-06
10 *209:9 *353:9 0.00825594
11 *209:9 *430:13 0.00147276
12 *209:9 *543:11 1.39936e-05
13 *92:9 *209:9 0
*RES
1 *874:gpio_analog_sel[39] *209:7 0.449004 
2 *209:7 *209:9 95.1533 
3 *209:9 *209:11 8 
4 *209:11 *209:13 751.121 
5 *209:13 gpio_analog_sel[39] 4.07036 
*END

*D_NET *210 0.720809
*CONN
*P gpio_analog_sel[3] O
*I *874:gpio_analog_sel[3] O *D counter_gpio_config_example
*CAP
1 gpio_analog_sel[3] 0.00917817
2 *874:gpio_analog_sel[3] 0.00110752
3 *210:14 0.0356135
4 *210:12 0.0264353
5 *210:10 0.216157
6 *210:8 0.217264
7 gpio_analog_sel[3] gpio_dm2[3] 0.000291325
8 gpio_analog_sel[3] *738:25 0
9 *210:8 *664:16 0.000611658
10 *210:14 *303:13 0.0170417
11 *210:14 *437:13 0
12 *199:11 *210:10 0.197109
*RES
1 *874:gpio_analog_sel[3] *210:8 12.2473 
2 *210:8 *210:10 63.6435 
3 *210:10 *210:12 0.891 
4 *210:12 *210:14 99.6987 
5 *210:14 gpio_analog_sel[3] 31.0468 
*END

*D_NET *211 0.217517
*CONN
*P gpio_analog_sel[40] O
*I *874:gpio_analog_sel[40] O *D counter_gpio_config_example
*CAP
1 gpio_analog_sel[40] 6.29857e-05
2 *874:gpio_analog_sel[40] 0.0115679
3 *211:21 0.00333636
4 *211:19 0.00327338
5 *211:17 0.0401385
6 *211:15 0.0401385
7 *211:13 0.0466986
8 *211:11 0.0582665
9 *211:11 *267:9 0
10 *211:11 *326:11 0
11 *211:13 *400:13 0.00770118
12 *211:17 *432:19 0
13 *211:17 *696:14 0
14 *211:21 gpio_dm2[40] 0
15 *211:21 *343:21 0.00607367
16 *112:11 *211:11 0.000229249
17 *195:7 *211:11 3.05609e-05
*RES
1 *874:gpio_analog_sel[40] *211:11 37.4411 
2 *211:11 *211:13 1053.05 
3 *211:13 *211:15 8 
4 *211:15 *211:17 118.037 
5 *211:17 *211:19 8 
6 *211:19 *211:21 96.135 
7 *211:21 gpio_analog_sel[40] 1.5225 
*END

*D_NET *212 0.320803
*CONN
*P gpio_analog_sel[41] O
*I *874:gpio_analog_sel[41] O *D counter_gpio_config_example
*CAP
1 gpio_analog_sel[41] 8.0726e-05
2 *874:gpio_analog_sel[41] 0.000718813
3 *212:13 0.0656822
4 *212:11 0.0656014
5 *212:9 0.0158558
6 *212:7 0.0165746
7 gpio_analog_sel[41] gpio_dm2[41] 0
8 *212:7 *225:7 0.000129524
9 *212:7 *418:7 0
10 *212:9 *228:9 0.0016429
11 *212:9 *384:9 0.00197709
12 *212:13 gpio_slow_sel[38] 0.0138793
13 *212:13 gpio_slow_sel[40] 0.000208859
14 *212:13 gpio_vtrip_sel[40] 0.000208859
15 *212:13 *296:13 0.00553623
16 *212:13 *300:13 0.029654
17 *212:13 *340:17 0.000380504
18 *212:13 *344:35 0.000208163
19 *212:13 *739:9 0.0111931
20 gpio_analog_pol[40] *212:13 0.000435532
21 *119:7 *212:7 0
22 *123:13 *212:13 0.0337563
23 *125:21 *212:13 0.0256629
24 *155:9 *212:9 0.0101461
25 *164:9 *212:9 0.00887884
26 *164:13 *212:13 0.000389658
27 *168:21 *212:13 0.0120014
*RES
1 *874:gpio_analog_sel[41] *212:7 9.96 
2 *212:7 *212:9 474.834 
3 *212:9 *212:11 8 
4 *212:11 *212:13 312.267 
5 *212:13 gpio_analog_sel[41] 9.76071 
*END

*D_NET *213 0.354981
*CONN
*P gpio_analog_sel[42] O
*I *874:gpio_analog_sel[42] O *D counter_gpio_config_example
*CAP
1 gpio_analog_sel[42] 0.000206953
2 *874:gpio_analog_sel[42] 0.00561334
3 *213:21 0.00555409
4 *213:19 0.00534714
5 *213:17 0.0660505
6 *213:15 0.0660505
7 *213:13 0.032083
8 *213:11 0.0376963
9 gpio_analog_sel[42] gpio_out[42] 0.000233994
10 *213:11 *363:7 4.41293e-05
11 *213:11 *363:9 0.00105961
12 *213:11 *390:11 0.000894571
13 *213:13 *310:13 0.00877139
14 *213:17 *390:17 0
15 *213:17 *475:11 0.0654729
16 *213:21 *741:13 0
17 *121:13 *213:13 0.0599023
*RES
1 *874:gpio_analog_sel[42] *213:11 23.2731 
2 *213:11 *213:13 992.484 
3 *213:13 *213:15 8 
4 *213:15 *213:17 233.871 
5 *213:17 *213:19 8 
6 *213:19 *213:21 125.011 
7 *213:21 gpio_analog_sel[42] 5.0025 
*END

*D_NET *214 0.337273
*CONN
*P gpio_analog_sel[43] O
*I *874:gpio_analog_sel[43] O *D counter_gpio_config_example
*CAP
1 gpio_analog_sel[43] 0.000101548
2 *874:gpio_analog_sel[43] 0.00255975
3 *214:21 0.0188907
4 *214:19 0.0187892
5 *214:17 0.0797068
6 *214:15 0.0797068
7 *214:13 0.00398032
8 *214:11 0.00654007
9 *214:11 *362:7 4.4107e-05
10 *214:11 *362:9 0.000769739
11 *214:11 *815:21 0.00478574
12 *214:13 *243:13 0.000131084
13 *214:13 *419:13 0.000259661
14 *214:13 *674:13 0
15 *214:13 *749:25 0.000282472
16 *214:17 *551:9 0.0525681
17 *214:21 gpio_dm2[43] 0
18 *214:21 *346:21 0.0509945
19 *214:21 *742:13 0
20 *165:9 *214:17 0
21 *169:13 *214:13 0.0125229
22 *170:13 *214:13 0.00457172
23 *177:11 *214:11 6.78937e-05
*RES
1 *874:gpio_analog_sel[43] *214:11 18.2928 
2 *214:11 *214:13 167.765 
3 *214:13 *214:15 8 
4 *214:15 *214:17 290.457 
5 *214:17 *214:19 8 
6 *214:19 *214:21 668.015 
7 *214:21 gpio_analog_sel[43] 2.45464 
*END

*D_NET *215 0.512544
*CONN
*P gpio_analog_sel[4] O
*I *874:gpio_analog_sel[4] O *D counter_gpio_config_example
*CAP
1 gpio_analog_sel[4] 0.000409427
2 *874:gpio_analog_sel[4] 0.00497154
3 *215:35 0.0876186
4 *215:33 0.0872092
5 *215:31 0.0411728
6 *215:9 0.0508627
7 *215:7 0.0146615
8 gpio_analog_sel[4] gpio_dm2[4] 5.58599e-05
9 gpio_analog_sel[4] gpio_holdover[4] 6.15719e-05
10 *215:9 *217:9 0.000305997
11 *215:9 *259:17 0.0267859
12 *215:9 *421:9 0.010778
13 *215:31 *233:13 0.000115337
14 *215:31 *293:17 0.00267163
15 *215:31 *337:17 0.00202391
16 *215:31 *338:17 0.00365693
17 *215:31 *381:17 0.00333416
18 *215:31 *427:17 0.00533506
19 *215:31 *542:13 0.000166499
20 *215:31 *557:17 0.00156623
21 *215:31 *743:17 0.000166435
22 *215:31 *779:16 0.0100011
23 *215:31 *829:16 9.66335e-05
24 *215:35 *234:17 0.0067301
25 *215:35 *391:21 0.134455
26 *103:17 *215:35 0
27 *104:27 *215:31 0.00864207
28 *117:17 *215:31 0.00449309
29 *117:17 *215:35 0.00321849
30 *168:7 *215:7 0.000490851
31 *190:21 *215:31 0.000192341
32 *194:7 *215:7 0.000294044
*RES
1 *874:gpio_analog_sel[4] *215:7 18.8901 
2 *215:7 *215:9 349.471 
3 *215:9 *215:31 45.8914 
4 *215:31 *215:33 15 
5 *215:33 *215:35 2672.43 
6 *215:35 gpio_analog_sel[4] 28.2917 
*END

*D_NET *216 0.350303
*CONN
*P gpio_analog_sel[5] O
*I *874:gpio_analog_sel[5] O *D counter_gpio_config_example
*CAP
1 gpio_analog_sel[5] 0.00019915
2 *874:gpio_analog_sel[5] 0.000245276
3 *216:17 0.0396965
4 *216:15 0.0394973
5 *216:13 0.0162971
6 *216:11 0.0162971
7 *216:9 0.100734
8 *216:7 0.100979
9 *216:7 *351:7 2.82839e-05
10 *216:7 *410:11 3.41491e-05
11 *216:9 *351:7 3.1594e-06
12 *216:9 *351:9 0.000347715
13 *216:9 *410:11 0.000208754
14 *216:9 *479:7 0.0357358
15 *216:17 *392:17 0
*RES
1 *874:gpio_analog_sel[5] *216:7 0.449004 
2 *216:7 *216:9 328.754 
3 *216:9 *216:11 8 
4 *216:11 *216:13 50.8293 
5 *216:13 *216:15 8 
6 *216:15 *216:17 112.769 
7 *216:17 gpio_analog_sel[5] 0.788667 
*END

*D_NET *217 0.726285
*CONN
*P gpio_analog_sel[6] O
*I *874:gpio_analog_sel[6] O *D counter_gpio_config_example
*CAP
1 gpio_analog_sel[6] 0.000117954
2 *874:gpio_analog_sel[6] 0.00460957
3 *217:13 0.137997
4 *217:11 0.137879
5 *217:9 0.0172883
6 *217:7 0.0218979
7 *217:7 *329:7 0.000687631
8 *217:9 *259:17 0.0289959
9 *217:9 *329:9 0.0657775
10 *217:9 *421:9 0.0160036
11 *217:13 gpio_dm2[6] 0.000486809
12 *217:13 *349:13 0.293812
13 *217:13 *393:13 0
14 *217:13 *664:22 0
15 *189:7 *217:7 0.000426784
16 *215:9 *217:9 0.000305997
*RES
1 *874:gpio_analog_sel[6] *217:7 18.7184 
2 *217:7 *217:9 838.245 
3 *217:9 *217:11 8 
4 *217:11 *217:13 564.299 
5 *217:13 gpio_analog_sel[6] 0.452667 
*END

*D_NET *218 0.496091
*CONN
*P gpio_analog_sel[7] O
*I *874:gpio_analog_sel[7] O *D counter_gpio_config_example
*CAP
1 gpio_analog_sel[7] 0.000245461
2 *874:gpio_analog_sel[7] 0.000209544
3 *218:17 0.0990879
4 *218:15 0.0988424
5 *218:13 0.0935984
6 *218:11 0.0935984
7 *218:9 0.0509086
8 *218:7 0.0511181
9 *218:7 *320:7 3.86115e-05
10 *218:7 *320:9 5.5178e-06
11 *218:9 *226:9 0
12 *218:9 *320:9 0.0065228
13 *218:13 *358:13 0
14 *218:17 *350:19 0
15 *187:11 *218:7 3.86115e-05
16 *187:11 *218:9 0.0018768
*RES
1 *874:gpio_analog_sel[7] *218:7 0.662667 
2 *218:7 *218:9 156.162 
3 *218:9 *218:11 8 
4 *218:11 *218:13 291.241 
5 *218:13 *218:15 8 
6 *218:15 *218:17 285.361 
7 *218:17 gpio_analog_sel[7] 0.952933 
*END

*D_NET *219 0.723055
*CONN
*P gpio_analog_sel[8] O
*I *874:gpio_analog_sel[8] O *D counter_gpio_config_example
*CAP
1 gpio_analog_sel[8] 0.000160759
2 *874:gpio_analog_sel[8] 0.00738193
3 *219:13 0.199673
4 *219:11 0.199512
5 *219:9 0.0506051
6 *219:7 0.057987
7 *219:7 *242:7 0.000952515
8 *219:7 *260:7 0
9 *219:7 *384:7 9.31556e-05
10 *219:9 *306:9 0.137511
11 *219:9 *393:9 0.0691792
12 *219:13 *395:13 0
*RES
1 *874:gpio_analog_sel[8] *219:7 25.0725 
2 *219:7 *219:9 2034.83 
3 *219:9 *219:11 8 
4 *219:11 *219:13 570.653 
5 *219:13 gpio_analog_sel[8] 0.616933 
*END

*D_NET *220 1.08921
*CONN
*P gpio_analog_sel[9] O
*I *874:gpio_analog_sel[9] O *D counter_gpio_config_example
*CAP
1 gpio_analog_sel[9] 2.38038e-05
2 *874:gpio_analog_sel[9] 0.0056439
3 *220:21 0.140632
4 *220:19 0.140608
5 *220:17 0.0317873
6 *220:15 0.0318395
7 *220:9 0.0131425
8 *220:7 0.0187343
9 *220:7 *359:7 0
10 *220:9 *383:9 0.0212307
11 *220:17 *272:9 0.194763
12 *220:17 *288:9 0.00172215
13 *220:17 *379:13 0.00827371
14 *220:17 *382:9 0
15 *220:17 *383:9 0.000811942
16 *220:17 *396:15 0.000416294
17 *220:17 *396:17 0.183024
18 *220:21 gpio_dm2[9] 0.00183984
19 *220:21 gpio_holdover[9] 0
20 *220:21 *352:21 0.284121
21 *101:7 *220:7 0.000651528
22 *150:9 *220:9 0.00237198
23 *164:7 *220:7 0.000105587
24 *201:9 *220:17 0.00747098
*RES
1 *874:gpio_analog_sel[9] *220:7 23.8275 
2 *220:7 *220:9 59.3339 
3 *220:9 *220:15 16.0989 
4 *220:15 *220:17 2480.64 
5 *220:17 *220:19 8 
6 *220:19 *220:21 569.365 
7 *220:21 gpio_analog_sel[9] 0.0942667 
*END

*D_NET *221 0.348371
*CONN
*P gpio_dm0[0] O
*I *874:gpio_dm0[0] O *D counter_gpio_config_example
*CAP
1 gpio_dm0[0] 0.000120386
2 *874:gpio_dm0[0] 0.0107004
3 *221:17 0.137159
4 *221:15 0.137039
5 *221:13 0.0202844
6 *221:11 0.0309848
7 *221:11 *385:7 4.62063e-05
8 *221:11 *385:9 0.00334231
9 *221:11 *551:7 0
10 *221:11 *551:9 0
11 *221:17 gpio_dm1[0] 0
12 gpio_analog_en[0] *221:17 0.0014912
13 gpio_analog_pol[0] *221:17 0.00200403
14 *170:17 *221:11 0.00519982
*RES
1 *874:gpio_dm0[0] *221:11 47.7021 
2 *221:11 *221:13 61.6187 
3 *221:13 *221:15 8 
4 *221:15 *221:17 402.483 
5 *221:17 gpio_dm0[0] 0.462 
*END

*D_NET *222 0.631257
*CONN
*P gpio_dm0[10] O
*I *874:gpio_dm0[10] O *D counter_gpio_config_example
*CAP
1 gpio_dm0[10] 6.66319e-05
2 *874:gpio_dm0[10] 0.000159401
3 *222:17 0.0846552
4 *222:15 0.0845885
5 *222:13 0.160178
6 *222:11 0.160178
7 *222:9 0.051901
8 *222:7 0.0520604
9 *222:7 *549:11 4.4107e-05
10 *222:9 *320:17 0.00987117
11 *222:9 *375:13 0.00203232
12 *222:9 *429:9 0
13 *222:9 *549:11 0.000128857
14 *222:9 *716:27 0.0160263
15 *222:17 *530:17 0
16 gpio_analog_en[10] *222:17 0.000478409
17 gpio_analog_pol[10] *222:17 0.00883902
18 *90:17 *222:17 0
19 *126:11 *222:7 5.00638e-05
20 *126:11 *222:9 0
21 *130:11 *222:9 0
*RES
1 *874:gpio_dm0[10] *222:7 0.662667 
2 *222:7 *222:9 187.074 
3 *222:9 *222:11 8 
4 *222:11 *222:13 496.746 
5 *222:13 *222:15 8 
6 *222:15 *222:17 254.449 
7 *222:17 gpio_dm0[10] 0.258533 
*END

*D_NET *223 1.14497
*CONN
*P gpio_dm0[11] O
*I *874:gpio_dm0[11] O *D counter_gpio_config_example
*CAP
1 gpio_dm0[11] 0.00344872
2 *874:gpio_dm0[11] 0.0005204
3 *223:13 0.131507
4 *223:11 0.128058
5 *223:9 0.0436809
6 *223:7 0.0442013
7 *223:7 *296:7 2.9627e-05
8 *223:7 *426:7 9.4577e-05
9 *223:9 *224:9 0.211147
10 *223:9 *225:9 0.243736
11 *223:9 *264:9 0.000845505
12 *223:9 *384:9 0.0462918
13 *223:9 *434:9 0
14 gpio_analog_en[11] gpio_dm0[11] 0.000556577
15 *91:21 gpio_dm0[11] 0.00038844
16 *91:21 *223:13 0.290462
17 *135:15 gpio_dm0[11] 0
18 *135:15 *223:13 0
*RES
1 *874:gpio_dm0[11] *223:7 9.61653 
2 *223:7 *223:9 3306.06 
3 *223:9 *223:11 8 
4 *223:11 *223:13 547.585 
5 *223:13 gpio_dm0[11] 8.60253 
*END

*D_NET *224 0.87843
*CONN
*P gpio_dm0[12] O
*I *874:gpio_dm0[12] O *D counter_gpio_config_example
*CAP
1 gpio_dm0[12] 0.000125737
2 *874:gpio_dm0[12] 0.000611948
3 *224:13 0.189336
4 *224:11 0.18921
5 *224:9 0.0464192
6 *224:7 0.0470311
7 *224:9 *225:9 0.00951845
8 *224:9 *264:9 0.174592
9 *224:13 *532:23 0
10 gpio_analog_en[12] *224:13 0.00112139
11 gpio_analog_pol[12] *224:13 0.00909002
12 *123:7 *224:7 0.000130884
13 *197:7 *224:7 9.59485e-05
14 *223:9 *224:9 0.211147
*RES
1 *874:gpio_dm0[12] *224:7 9.7024 
2 *224:7 *224:9 2925.04 
3 *224:9 *224:11 8 
4 *224:11 *224:13 555.283 
5 *224:13 gpio_dm0[12] 0.482533 
*END

*D_NET *225 0.999523
*CONN
*P gpio_dm0[13] O
*I *874:gpio_dm0[13] O *D counter_gpio_config_example
*CAP
1 gpio_dm0[13] 2.26181e-05
2 *874:gpio_dm0[13] 0.000449011
3 *225:13 0.144335
4 *225:11 0.144312
5 *225:9 0.113547
6 *225:7 0.113996
7 *225:9 *302:9 0
8 *225:9 *324:17 0
9 *225:9 *434:9 0
10 *225:9 *532:19 0
11 *225:13 *533:25 0.22843
12 gpio_analog_en[13] *225:13 0
13 gpio_analog_pol[13] *225:13 0.000919927
14 *93:21 *225:13 0
15 *119:7 *225:7 0.000129524
16 *147:19 *225:9 0
17 *212:7 *225:7 0.000129524
18 *223:9 *225:9 0.243736
19 *224:9 *225:9 0.00951845
*RES
1 *874:gpio_dm0[13] *225:7 9.53067 
2 *225:7 *225:9 3808.22 
3 *225:9 *225:11 8 
4 *225:11 *225:13 555.111 
5 *225:13 gpio_dm0[13] 0.0868 
*END

*D_NET *226 0.920756
*CONN
*P gpio_dm0[14] O
*I *874:gpio_dm0[14] O *D counter_gpio_config_example
*CAP
1 gpio_dm0[14] 0.00337899
2 *874:gpio_dm0[14] 0.000133325
3 *226:19 0.0133448
4 *226:13 0.225427
5 *226:11 0.215462
6 *226:9 0.091021
7 *226:7 0.0911543
8 gpio_dm0[14] *534:34 0
9 *226:7 *320:7 2.9754e-05
10 *226:9 *320:7 1.76595e-05
11 *226:9 *320:9 0.0065228
12 *226:9 *562:17 0.209139
13 *226:13 *711:21 0
14 *226:13 *799:13 0.0542027
15 *226:19 *534:34 0
16 gpio_analog_en[14] gpio_dm0[14] 5.10692e-05
17 gpio_analog_pol[14] gpio_dm0[14] 0
18 *94:11 *226:7 3.20311e-05
19 *94:11 *226:9 0.000221519
20 *94:17 gpio_dm0[14] 0.000465339
21 *94:17 *226:19 0.0101532
22 *218:9 *226:9 0
*RES
1 *874:gpio_dm0[14] *226:7 0.490933 
2 *226:7 *226:9 397.275 
3 *226:9 *226:11 8 
4 *226:11 *226:13 666.075 
5 *226:13 *226:19 45.2437 
6 *226:19 gpio_dm0[14] 8.12093 
*END

*D_NET *227 0.616089
*CONN
*P gpio_dm0[15] O
*I *874:gpio_dm0[15] O *D counter_gpio_config_example
*CAP
1 gpio_dm0[15] 8.98303e-05
2 *874:gpio_dm0[15] 0.000226735
3 *227:21 0.0067988
4 *227:19 0.00670897
5 *227:17 0.119744
6 *227:15 0.119744
7 *227:13 0.161927
8 *227:11 0.161927
9 *227:9 0.0182546
10 *227:7 0.0184814
11 *227:9 *254:17 0.000930597
12 *227:9 *544:11 0
13 *227:17 *402:13 0
14 gpio_analog_en[15] gpio_dm0[15] 0
15 gpio_analog_pol[15] gpio_dm0[15] 0
16 *117:11 *227:7 3.43522e-05
17 *117:11 *227:9 0.000227277
18 *122:195 *227:9 0
19 *124:11 *227:7 2.49637e-05
20 *124:11 *227:9 0.000971174
21 *139:17 *227:21 0
*RES
1 *874:gpio_dm0[15] *227:7 0.592994 
2 *227:7 *227:9 51.9624 
3 *227:9 *227:11 8 
4 *227:11 *227:13 3751.17 
5 *227:13 *227:15 8 
6 *227:15 *227:17 352.281 
7 *227:17 *227:19 8 
8 *227:19 *227:21 158.609 
9 *227:21 gpio_dm0[15] 1.86429 
*END

*D_NET *228 0.784214
*CONN
*P gpio_dm0[16] O
*I *874:gpio_dm0[16] O *D counter_gpio_config_example
*CAP
1 gpio_dm0[16] 0.158959
2 *874:gpio_dm0[16] 0.000652639
3 *228:15 0.158959
4 *228:13 0.145052
5 *228:11 0.145052
6 *228:9 0.016646
7 *228:7 0.0172986
8 *228:7 *280:7 0.000110411
9 *228:7 *406:7 0
10 *228:9 *229:9 0.0602276
11 *228:9 *264:9 0.0553464
12 *228:9 *384:9 0.0077167
13 *228:13 *480:15 0
14 *228:13 *678:9 0
15 *228:13 *680:11 0
16 *228:13 *684:11 0.0144686
17 *228:13 *791:11 0
18 *228:13 *812:11 0.00208306
19 gpio_analog_en[16] gpio_dm0[16] 0
20 gpio_analog_pol[16] gpio_dm0[16] 0
21 *212:9 *228:9 0.0016429
*RES
1 *874:gpio_dm0[16] *228:7 9.87413 
2 *228:7 *228:9 919.942 
3 *228:9 *228:11 8 
4 *228:11 *228:13 423.207 
5 *228:13 *228:15 8 
6 *228:15 gpio_dm0[16] 3561.65 
*END

*D_NET *229 0.711329
*CONN
*P gpio_dm0[17] O
*I *874:gpio_dm0[17] O *D counter_gpio_config_example
*CAP
1 gpio_dm0[17] 0.153921
2 *874:gpio_dm0[17] 0.00068384
3 *229:15 0.153921
4 *229:13 0.129277
5 *229:11 0.129277
6 *229:9 0.0151171
7 *229:7 0.0158009
8 gpio_dm0[17] *449:15 0
9 *229:7 *374:7 0.000148989
10 *229:7 *537:7 0.000150448
11 *229:9 *271:9 0.000668447
12 *229:9 *360:9 0.0430666
13 *229:9 *663:9 0
14 *229:13 *407:13 0
15 *229:13 *480:15 0
16 *229:13 *678:9 0
17 *229:13 *680:11 0
18 *229:13 *722:11 0
19 *229:13 *732:11 0.00906921
20 gpio_analog_en[17] gpio_dm0[17] 0
21 gpio_analog_pol[17] gpio_dm0[17] 0
22 *228:9 *229:9 0.0602276
*RES
1 *874:gpio_dm0[17] *229:7 9.96 
2 *229:7 *229:9 779.085 
3 *229:9 *229:11 8 
4 *229:11 *229:13 375.293 
5 *229:13 *229:15 8 
6 *229:15 gpio_dm0[17] 3575.73 
*END

*D_NET *230 0.512335
*CONN
*P gpio_dm0[18] O
*I *874:gpio_dm0[18] O *D counter_gpio_config_example
*CAP
1 gpio_dm0[18] 0.166111
2 *874:gpio_dm0[18] 0.000209942
3 *230:11 0.166111
4 *230:9 0.0435133
5 *230:7 0.0437233
6 *230:7 *235:11 4.18958e-05
7 *230:9 *235:11 3.73167e-05
8 *230:9 *240:11 0
9 *230:9 *694:17 0.0925458
10 *230:9 *826:22 0
11 gpio_analog_en[18] gpio_dm0[18] 0
12 gpio_analog_pol[18] gpio_dm0[18] 0
13 *188:7 *230:7 4.26907e-05
14 *188:9 *230:9 0
*RES
1 *874:gpio_dm0[18] *230:7 0.379331 
2 *230:7 *230:9 178.186 
3 *230:9 *230:11 8 
4 *230:11 gpio_dm0[18] 3851.81 
*END

*D_NET *231 0.4128
*CONN
*P gpio_dm0[19] O
*I *874:gpio_dm0[19] O *D counter_gpio_config_example
*CAP
1 gpio_dm0[19] 0.176257
2 *874:gpio_dm0[19] 0.000191757
3 *231:11 0.176257
4 *231:9 0.0271394
5 *231:7 0.0273311
6 *231:7 *386:7 0
7 *231:9 *386:9 0
8 gpio_analog_en[19] gpio_dm0[19] 0
9 gpio_analog_pol[19] gpio_dm0[19] 0
10 *175:7 *231:7 3.37536e-05
11 *175:9 *231:7 4.44052e-06
12 *175:9 *231:9 0.00558495
*RES
1 *874:gpio_dm0[19] *231:7 0.662667 
2 *231:7 *231:9 83.132 
3 *231:9 *231:11 8 
4 *231:11 gpio_dm0[19] 4080 
*END

*D_NET *232 0.417102
*CONN
*P gpio_dm0[1] O
*I *874:gpio_dm0[1] O *D counter_gpio_config_example
*CAP
1 gpio_dm0[1] 0.00190554
2 *874:gpio_dm0[1] 0.0575238
3 *232:18 0.149888
4 *232:16 0.205506
5 gpio_dm0[1] *276:23 0.000387076
6 gpio_dm0[1] *833:13 0
7 *232:16 *298:16 0.00074928
8 *232:16 *664:16 0.000147188
9 *232:18 gpio_dm1[1] 1.39834e-05
10 gpio_analog_en[1] gpio_dm0[1] 0.000900721
11 gpio_analog_en[1] *232:18 0
12 gpio_analog_pol[1] gpio_dm0[1] 0
13 *120:10 *232:16 8.07089e-05
14 *155:25 gpio_dm0[1] 0
*RES
1 *874:gpio_dm0[1] *232:16 34.7578 
2 *232:16 *232:18 437.761 
3 *232:18 gpio_dm0[1] 28.7582 
*END

*D_NET *233 0.544764
*CONN
*P gpio_dm0[20] O
*I *874:gpio_dm0[20] O *D counter_gpio_config_example
*CAP
1 gpio_dm0[20] 9.04367e-05
2 *874:gpio_dm0[20] 0.000882427
3 *233:25 0.162483
4 *233:23 0.162393
5 *233:21 0.0137479
6 *233:19 0.0139924
7 *233:13 0.00627106
8 *233:9 0.0172182
9 *233:7 0.012074
10 *233:9 *271:9 0.0291364
11 *233:9 *663:9 0
12 *233:13 *271:13 0.000728231
13 *233:13 *323:13 3.4915e-06
14 *233:13 *542:13 0.0194247
15 *233:13 *544:17 0.0088615
16 *233:13 *783:11 0.000199606
17 *233:19 *770:5 9.52471e-05
18 *233:21 *271:21 0.0572824
19 *233:21 *323:13 0.000135504
20 *233:21 *542:21 0.030856
21 *233:21 *743:17 0.00653171
22 gpio_analog_en[20] gpio_dm0[20] 0
23 gpio_analog_en[20] *233:25 0
24 gpio_analog_pol[20] gpio_dm0[20] 0
25 gpio_analog_pol[20] *233:25 0
26 *103:27 *233:21 0.000198558
27 *104:27 *233:13 0.00173842
28 *152:7 *233:7 0.00015239
29 *189:7 *233:7 0.00015239
30 *215:31 *233:13 0.000115337
*RES
1 *874:gpio_dm0[20] *233:7 10.2176 
2 *233:7 *233:9 375.529 
3 *233:9 *233:13 44.8069 
4 *233:13 *233:19 27.8989 
5 *233:19 *233:21 624.743 
6 *233:21 *233:23 15 
7 *233:23 *233:25 3635.14 
8 *233:25 gpio_dm0[20] 1.86429 
*END

*D_NET *234 0.438105
*CONN
*P gpio_dm0[21] O
*I *874:gpio_dm0[21] O *D counter_gpio_config_example
*CAP
1 gpio_dm0[21] 9.62404e-05
2 *874:gpio_dm0[21] 0.000147878
3 *234:21 0.157638
4 *234:19 0.157542
5 *234:17 0.000961732
6 *234:15 0.000961732
7 *234:13 0.00967563
8 *234:11 0.0120871
9 *234:7 0.00255939
10 *234:7 *358:7 3.47144e-05
11 *234:7 *546:11 3.41542e-05
12 *234:11 *815:17 0
13 *234:13 *543:13 0.0420737
14 *234:13 *815:17 0.000283513
15 *234:17 *391:21 0.00673179
16 gpio_analog_en[21] gpio_dm0[21] 0
17 gpio_analog_pol[21] gpio_dm0[21] 0
18 *117:17 *234:17 0.00146228
19 *146:29 *234:21 0
20 *158:11 *234:13 0.0378358
21 *200:13 *234:13 0.00124878
22 *215:35 *234:17 0.0067301
*RES
1 *874:gpio_dm0[21] *234:7 8.48401 
2 *234:7 *234:11 49.9421 
3 *234:11 *234:13 554.843 
4 *234:13 *234:15 15 
5 *234:15 *234:17 73.0386 
6 *234:17 *234:19 15 
7 *234:19 *234:21 3644.65 
8 *234:21 gpio_dm0[21] 1.86429 
*END

*D_NET *235 0.447893
*CONN
*P gpio_dm0[22] O
*I *874:gpio_dm0[22] O *D counter_gpio_config_example
*CAP
1 gpio_dm0[22] 0.15894
2 *874:gpio_dm0[22] 0.000423266
3 *235:19 0.15894
4 *235:17 0.00958443
5 *235:15 0.00958443
6 *235:13 0.00489315
7 *235:11 0.00531641
8 gpio_dm0[22] *675:5 0
9 gpio_dm0[22] *678:5 0.00542589
10 gpio_dm0[22] *753:13 0.0028057
11 *235:11 *240:11 6.26158e-05
12 *235:13 *425:13 0.0156834
13 *235:13 *427:13 0.00976588
14 *235:13 *543:13 0.000455121
15 *235:13 *546:13 0
16 *235:17 *367:25 0.0321651
17 *235:17 *743:17 0.0302939
18 gpio_analog_en[22] gpio_dm0[22] 0
19 gpio_analog_pol[22] gpio_dm0[22] 0
20 *103:27 *235:17 0.000468593
21 *104:27 *235:17 0.00258999
22 *142:13 *235:17 0
23 *160:17 *235:13 0.00041626
24 *230:7 *235:11 4.18958e-05
25 *230:9 *235:11 3.73167e-05
*RES
1 *874:gpio_dm0[22] *235:11 9.10507 
2 *235:11 *235:13 216.361 
3 *235:13 *235:15 8 
4 *235:15 *235:17 61.4507 
5 *235:17 *235:19 8 
6 *235:19 gpio_dm0[22] 3638.41 
*END

*D_NET *236 0.669274
*CONN
*P gpio_dm0[23] O
*I *874:gpio_dm0[23] O *D counter_gpio_config_example
*CAP
1 gpio_dm0[23] 2.40452e-05
2 *874:gpio_dm0[23] 7.04812e-05
3 *236:17 0.00377627
4 *236:15 0.00375223
5 *236:13 0.0375258
6 *236:11 0.0375258
7 *236:9 0.126662
8 *236:7 0.126733
9 *236:7 *530:7 3.17555e-05
10 *236:9 *237:9 0.0559549
11 *236:9 *245:9 0.00227039
12 *236:9 *286:21 0.0414606
13 *236:13 *451:9 0
14 gpio_analog_en[23] *236:17 0
15 gpio_analog_pol[23] *236:17 0
16 *138:7 *236:7 3.17555e-05
17 *158:11 *236:9 0.000671902
18 *192:9 *236:9 0.232783
*RES
1 *874:gpio_dm0[23] *236:7 8.32853 
2 *236:7 *236:9 3978.3 
3 *236:9 *236:11 8 
4 *236:11 *236:13 108.935 
5 *236:13 *236:15 8 
6 *236:15 *236:17 81.1379 
7 *236:17 gpio_dm0[23] 0.548929 
*END

*D_NET *237 0.918115
*CONN
*P gpio_dm0[24] O
*I *874:gpio_dm0[24] O *D counter_gpio_config_example
*CAP
1 gpio_dm0[24] 0.0029037
2 *874:gpio_dm0[24] 0.000116517
3 *237:13 0.0371472
4 *237:11 0.0342434
5 *237:9 0.163157
6 *237:7 0.163274
7 *237:7 *355:7 2.19771e-05
8 *237:7 *355:9 7.9281e-06
9 *237:7 *409:11 3.05369e-05
10 *237:9 *245:9 0.0145717
11 *237:9 *251:24 2.84196e-05
12 *237:9 *286:21 0.127401
13 *237:9 *368:57 0
14 *237:9 *372:25 0.00321142
15 *237:9 *420:12 0
16 *237:9 *545:8 0
17 *237:9 *545:10 0
18 *237:9 *545:16 0
19 *237:9 *553:12 0.00014194
20 gpio_analog_en[24] gpio_dm0[24] 0.000420238
21 gpio_analog_en[24] *237:13 0
22 *110:6 *237:9 0.000476686
23 *120:8 *237:9 0.000760696
24 *149:25 gpio_dm0[24] 0.0004168
25 *149:25 *237:13 0.0757761
26 *192:9 *237:9 0.0406135
27 *195:9 *237:9 0.184733
28 *200:13 *237:9 0.0127073
29 *208:26 *237:9 0
30 *236:9 *237:9 0.0559549
*RES
1 *874:gpio_dm0[24] *237:7 8.30179 
2 *237:7 *237:9 717.039 
3 *237:9 *237:11 8 
4 *237:11 *237:13 143.11 
5 *237:13 gpio_dm0[24] 7.42467 
*END

*D_NET *238 0.615471
*CONN
*P gpio_dm0[25] O
*I *874:gpio_dm0[25] O *D counter_gpio_config_example
*CAP
1 gpio_dm0[25] 0.0015979
2 *874:gpio_dm0[25] 0.00238767
3 *238:33 0.0480927
4 *238:31 0.0464948
5 *238:29 0.0705303
6 *238:27 0.070724
7 *238:17 0.0016075
8 *238:15 0.00141377
9 *238:13 0.00553353
10 *238:11 0.0079212
11 *238:11 *269:7 2.49637e-05
12 *238:11 *269:9 0.000300121
13 *238:11 *364:7 3.43522e-05
14 *238:11 *364:9 0.000296757
15 *238:13 *240:13 0.0156417
16 *238:13 *330:13 7.07194e-05
17 *238:13 *372:13 0.0225132
18 *238:13 *738:21 0.00159288
19 *238:17 *259:29 0.000391438
20 *238:17 *282:17 0.00597579
21 *238:17 *661:17 0.00625254
22 *238:17 *694:9 0.000567389
23 *238:17 *716:19 0.000229312
24 *238:27 *749:13 5.10545e-05
25 *238:29 *454:13 0.101883
26 *238:29 *455:13 0.19298
27 gpio_analog_pol[25] gpio_dm0[25] 0.000469403
28 gpio_analog_pol[25] *238:33 0.00984641
29 *106:25 gpio_dm0[25] 0
30 *106:25 *238:33 0
31 *146:27 *238:27 4.62763e-05
*RES
1 *874:gpio_dm0[25] *238:11 13.9995 
2 *238:11 *238:13 294.712 
3 *238:13 *238:15 15 
4 *238:15 *238:17 73.0386 
5 *238:17 *238:27 33.1807 
6 *238:27 *238:29 469.455 
7 *238:29 *238:31 8 
8 *238:31 *238:33 138.602 
9 *238:33 gpio_dm0[25] 22.6628 
*END

*D_NET *239 0.601419
*CONN
*P gpio_dm0[26] O
*I *874:gpio_dm0[26] O *D counter_gpio_config_example
*CAP
1 gpio_dm0[26] 0.0028986
2 *874:gpio_dm0[26] 0.00360431
3 *239:25 0.0553942
4 *239:23 0.0524956
5 *239:21 0.083693
6 *239:19 0.083727
7 *239:13 0.00430679
8 *239:11 0.00787707
9 *239:11 *372:11 0.000420618
10 *239:11 *425:11 6.38524e-05
11 *239:13 *281:13 0.0113034
12 *239:13 *357:17 0.000282337
13 *239:13 *376:13 0.00021657
14 *239:13 *749:25 0
15 *239:19 *243:11 7.51535e-06
16 *239:19 *540:11 4.93993e-05
17 *239:21 *281:13 0.00282493
18 *239:21 *281:21 0.160947
19 *239:21 *286:13 0.00163509
20 *239:21 *376:13 0.124583
21 *239:21 *423:13 0
22 gpio_analog_en[26] gpio_dm0[26] 0.000408965
23 gpio_analog_en[26] *239:25 0.00440384
24 gpio_analog_pol[26] gpio_dm0[26] 0.000275803
25 *140:9 *239:11 0
26 *151:15 *239:25 0
*RES
1 *874:gpio_dm0[26] *239:11 17.3922 
2 *239:11 *239:13 145.228 
3 *239:13 *239:19 16.0989 
4 *239:19 *239:21 469.455 
5 *239:21 *239:23 8 
6 *239:23 *239:25 152.212 
7 *239:25 gpio_dm0[26] 7.1484 
*END

*D_NET *240 0.540677
*CONN
*P gpio_dm0[27] O
*I *874:gpio_dm0[27] O *D counter_gpio_config_example
*CAP
1 gpio_dm0[27] 0.0357306
2 *874:gpio_dm0[27] 0.00255746
3 *240:28 7.29615e-06
4 *240:23 0.0357233
5 *240:21 0.063889
6 *240:19 0.0671632
7 *240:13 0.00978587
8 *240:11 0.00906917
9 gpio_dm0[27] gpio_dm1[27] 0
10 *240:11 *398:11 0.000393302
11 *240:13 *330:13 3.15006e-05
12 *240:19 *282:27 5.10545e-05
13 *240:19 *286:19 0.00282784
14 *240:19 *425:17 0.00189032
15 *240:19 *557:17 0.000107501
16 *240:19 *705:29 0.000429359
17 *240:19 *749:13 0.00315893
18 *240:19 *787:9 0.000269553
19 *240:21 *453:17 0.0564962
20 *240:21 *454:13 0.160165
21 gpio_analog_en[27] gpio_dm0[27] 0.00162697
22 gpio_analog_pol[27] gpio_dm0[27] 0
23 gpio_analog_pol[27] *240:28 0
24 *108:25 gpio_dm0[27] 0.0732778
25 *117:17 *240:19 0
26 *146:27 *240:19 0.000321314
27 *149:13 *240:13 0
28 *230:9 *240:11 0
29 *235:11 *240:11 6.26158e-05
30 *238:13 *240:13 0.0156417
*RES
1 *874:gpio_dm0[27] *240:11 14.0853 
2 *240:11 *240:13 205.092 
3 *240:13 *240:19 28.8072 
4 *240:19 *240:21 389.741 
5 *240:21 *240:23 8 
6 *240:23 gpio_dm0[27] 142.309 
7 gpio_dm0[27] *240:28 0.0908108 
*END

*D_NET *241 0.497659
*CONN
*P gpio_dm0[28] O
*I *874:gpio_dm0[28] O *D counter_gpio_config_example
*CAP
1 gpio_dm0[28] 0.00834581
2 *874:gpio_dm0[28] 0.00446629
3 *241:19 0.0362219
4 *241:17 0.0283477
5 *241:9 0.0580636
6 *241:7 0.0620583
7 gpio_dm0[28] *413:17 0.000296766
8 *241:7 *296:7 2.9627e-05
9 *241:7 *666:15 0.000363265
10 *241:9 *305:9 0.0764688
11 *241:17 gpio_dm2[31] 4.43291e-05
12 *241:17 gpio_holdover[31] 4.54232e-05
13 *241:19 *268:17 0.00840934
14 *241:19 *374:9 0.0326921
15 *241:19 *418:9 0.00333182
16 *241:19 *440:9 0.00615863
17 gpio_analog_pol[28] gpio_dm0[28] 0.000649229
18 *107:9 *241:19 0.00979249
19 *109:17 gpio_dm0[28] 0.000975781
20 *153:17 gpio_dm0[28] 0.00512186
21 *178:17 *241:19 0.0114937
22 *179:17 *241:9 0.138576
23 *184:9 *241:9 0.00570616
*RES
1 *874:gpio_dm0[28] *241:7 20.0064 
2 *241:7 *241:9 2258.08 
3 *241:9 *241:17 17.3571 
4 *241:17 *241:19 124.451 
5 *241:19 gpio_dm0[28] 33.4081 
*END

*D_NET *242 0.325902
*CONN
*P gpio_dm0[29] O
*I *874:gpio_dm0[29] O *D counter_gpio_config_example
*CAP
1 gpio_dm0[29] 0.00537426
2 *874:gpio_dm0[29] 0.00887898
3 *242:9 0.101276
4 *242:7 0.104781
5 gpio_dm0[29] *286:25 0
6 *242:7 *266:15 5.5476e-05
7 *242:7 *307:15 6.99005e-05
8 *242:9 *248:9 0
9 *242:9 *289:9 0
10 *242:9 *291:9 0.0599574
11 *242:9 *373:17 0.0348251
12 gpio_analog_pol[29] gpio_dm0[29] 0.00884978
13 *110:10 gpio_dm0[29] 0
14 *132:7 *242:7 2.33508e-05
15 *161:9 *242:9 0
16 *206:9 *242:9 0.00085834
17 *219:7 *242:7 0.000952515
*RES
1 *874:gpio_dm0[29] *242:7 28.2925 
2 *242:7 *242:9 384.283 
3 *242:9 gpio_dm0[29] 25.7921 
*END

*D_NET *243 0.34731
*CONN
*P gpio_dm0[2] O
*I *874:gpio_dm0[2] O *D counter_gpio_config_example
*CAP
1 gpio_dm0[2] 0.00170168
2 *874:gpio_dm0[2] 0.00389779
3 *243:17 0.147636
4 *243:15 0.145935
5 *243:13 0.0132143
6 *243:11 0.0171121
7 gpio_dm0[2] *342:25 0
8 gpio_dm0[2] *833:13 0
9 *243:11 *253:11 0.000572173
10 *243:11 *540:11 0.000566385
11 *243:13 *357:17 4.90794e-05
12 *243:13 *376:13 0.00667827
13 *243:13 *419:13 0.00211729
14 *243:13 *749:25 0.00180385
15 *243:17 gpio_inp_dis[2] 0.000389304
16 *243:17 *255:9 0
17 *243:17 *273:9 0
18 gpio_analog_en[2] gpio_dm0[2] 0
19 gpio_analog_pol[2] gpio_dm0[2] 0.00192523
20 *128:17 *243:13 0.00346954
21 *155:25 gpio_dm0[2] 0
22 *169:13 *243:13 0.000104065
23 *214:13 *243:13 0.000131084
24 *239:19 *243:11 7.51535e-06
*RES
1 *874:gpio_dm0[2] *243:11 18.164 
2 *243:11 *243:13 46.3867 
3 *243:13 *243:15 8 
4 *243:15 *243:17 428.23 
5 *243:17 gpio_dm0[2] 25.3543 
*END

*D_NET *244 0.457713
*CONN
*P gpio_dm0[30] O
*I *874:gpio_dm0[30] O *D counter_gpio_config_example
*CAP
1 gpio_dm0[30] 0.00993217
2 *874:gpio_dm0[30] 0.00234615
3 *244:9 0.112866
4 *244:7 0.10528
5 gpio_dm0[30] gpio_dm1[30] 0
6 *244:9 *316:11 0.0298127
7 *244:9 *369:9 0.0285986
8 *244:9 *392:13 0
9 *244:9 *426:9 0.0128284
10 *244:9 *733:13 0.00101366
11 *244:9 *778:13 0.0021884
12 gpio_analog_en[30] gpio_dm0[30] 0.000475147
13 gpio_analog_pol[30] gpio_dm0[30] 0
14 *91:9 *244:9 0.00126872
15 *93:9 *244:9 0.0122459
16 *93:17 *244:9 0.00923646
17 *96:7 *244:7 0.000354599
18 *105:9 *244:9 0.000309589
19 *105:17 *244:9 0.0349327
20 *112:33 gpio_dm0[30] 0.0142883
21 *116:9 *244:9 0.0293834
22 *122:15 *244:9 0.00505318
23 *122:17 *244:9 0.000794769
24 *127:9 *244:9 0.00871591
25 *180:9 *244:9 0.0117649
26 *183:7 *244:7 0.000355987
27 *194:9 *244:9 0.0236679
*RES
1 *874:gpio_dm0[30] *244:7 14.0387 
2 *244:7 *244:9 419.825 
3 *244:9 gpio_dm0[30] 39.71 
*END

*D_NET *245 0.393564
*CONN
*P gpio_dm0[31] O
*I *874:gpio_dm0[31] O *D counter_gpio_config_example
*CAP
1 gpio_dm0[31] 0.000517212
2 *874:gpio_dm0[31] 0.00016222
3 *245:13 0.0561833
4 *245:11 0.0556661
5 *245:9 0.0323328
6 *245:7 0.032495
7 gpio_dm0[31] *726:21 0.000845765
8 *245:7 *299:7 3.19664e-05
9 *245:7 *299:9 1.32238e-06
10 *245:13 *810:17 0
11 gpio_analog_pol[31] gpio_dm0[31] 0
12 gpio_analog_pol[31] *245:13 0
13 *113:17 gpio_dm0[31] 0.000160637
14 *140:7 *245:7 3.01206e-05
15 *158:11 *245:9 0.075535
16 *192:9 *245:9 0.12276
17 *236:9 *245:9 0.00227039
18 *237:9 *245:9 0.0145717
*RES
1 *874:gpio_dm0[31] *245:7 8.48401 
2 *245:7 *245:9 1634.44 
3 *245:9 *245:11 8 
4 *245:11 *245:13 149.206 
5 *245:13 gpio_dm0[31] 27.5078 
*END

*D_NET *246 0.355108
*CONN
*P gpio_dm0[32] O
*I *874:gpio_dm0[32] O *D counter_gpio_config_example
*CAP
1 gpio_dm0[32] 0.00302381
2 *874:gpio_dm0[32] 0.0135068
3 *246:53 0.0432433
4 *246:51 0.041579
5 *246:37 0.0195203
6 *246:35 0.0260856
7 *246:23 0.0214316
8 gpio_dm0[32] gpio_inp_dis[32] 0
9 *246:23 *533:13 0.000916673
10 *246:35 *282:13 0.000243457
11 *246:35 *415:13 0.0100465
12 *246:35 *533:13 0
13 *246:37 *282:13 0.000151253
14 *246:37 *330:21 0.00922731
15 *246:37 *415:13 0.0458342
16 *246:51 *330:21 0.00011471
17 *246:51 *415:13 4.24889e-05
18 *246:53 gpio_inp_dis[32] 0
19 gpio_analog_en[32] gpio_dm0[32] 0.000396118
20 gpio_analog_en[32] *246:53 0
21 gpio_analog_pol[32] gpio_dm0[32] 0.000163982
22 *114:29 *246:51 0.000135596
23 *114:29 *246:53 0.0707263
24 *121:11 *246:23 0.000506966
25 *149:13 *246:23 0.000844102
26 *149:13 *246:35 0.000898896
27 *149:13 *246:37 0.0174933
28 *153:11 *246:23 0.000511741
29 *158:15 *246:53 0
30 *203:13 *246:23 0.00260903
31 *203:13 *246:35 0.0111951
32 *203:13 *246:37 0.0146598
*RES
1 *874:gpio_dm0[32] *246:23 47.5379 
2 *246:23 *246:35 36.9152 
3 *246:35 *246:37 111.944 
4 *246:37 *246:51 11.4197 
5 *246:51 *246:53 146.888 
6 *246:53 gpio_dm0[32] 7.08867 
*END

*D_NET *247 0.234659
*CONN
*P gpio_dm0[33] O
*I *874:gpio_dm0[33] O *D counter_gpio_config_example
*CAP
1 gpio_dm0[33] 0.00741444
2 *874:gpio_dm0[33] 0.0065142
3 *247:9 0.0392182
4 *247:7 0.0383179
5 gpio_dm0[33] gpio_dm1[33] 0
6 gpio_dm0[33] *373:15 0
7 gpio_dm0[33] *775:9 0.000173366
8 *247:7 *322:7 0
9 *247:7 *542:7 0.000224517
10 *247:9 *284:9 0
11 *247:9 *314:9 0.0204268
12 gpio_analog_en[33] gpio_dm0[33] 0.000791307
13 gpio_analog_pol[33] gpio_dm0[33] 0
14 *115:17 gpio_dm0[33] 0.0100213
15 *183:9 *247:9 0.00272894
16 *191:9 *247:9 0.0114052
17 *193:17 *247:9 0.0263691
18 *196:9 *247:9 0.0710532
19 *206:7 *247:7 0
*RES
1 *874:gpio_dm0[33] *247:7 22.6253 
2 *247:7 *247:9 173.193 
3 *247:9 gpio_dm0[33] 31.0561 
*END

*D_NET *248 0.207026
*CONN
*P gpio_dm0[34] O
*I *874:gpio_dm0[34] O *D counter_gpio_config_example
*CAP
1 gpio_dm0[34] 0.00649849
2 *874:gpio_dm0[34] 0.00765811
3 *248:9 0.0338694
4 *248:7 0.035029
5 gpio_dm0[34] *413:17 0.000296766
6 *248:7 *365:7 0.00161194
7 *248:9 *280:9 0.00187872
8 *248:9 *289:9 0.0453514
9 *248:9 *307:9 0
10 *248:9 *366:9 0.00289138
11 gpio_analog_en[34] gpio_dm0[34] 0.000943748
12 gpio_analog_pol[34] gpio_dm0[34] 0.000635646
13 *159:9 *248:9 0
14 *160:21 gpio_dm0[34] 0.000963779
15 *161:9 *248:9 0.050272
16 *163:9 *248:9 0.0182595
17 *191:7 *248:7 0.000865983
18 *242:9 *248:9 0
*RES
1 *874:gpio_dm0[34] *248:7 29.3229 
2 *248:7 *248:9 165.704 
3 *248:9 gpio_dm0[34] 25.2769 
*END

*D_NET *249 0.169698
*CONN
*P gpio_dm0[35] O
*I *874:gpio_dm0[35] O *D counter_gpio_config_example
*CAP
1 gpio_dm0[35] 0.00136787
2 *874:gpio_dm0[35] 0.00353546
3 *249:17 0.0114584
4 *249:9 0.0334547
5 *249:7 0.0268996
6 *249:7 *537:7 0.000272316
7 *249:9 *274:9 0.00508112
8 *249:9 *325:9 0.012287
9 *249:9 *470:11 0.00358146
10 *249:17 *413:15 3.18757e-05
11 *249:17 *462:15 0.000115147
12 gpio_analog_en[35] gpio_dm0[35] 0
13 gpio_analog_pol[35] gpio_dm0[35] 0.00164032
14 gpio_analog_pol[35] *249:17 0.00664931
15 *95:9 *249:9 0.00637035
16 *96:9 *249:9 0.00139476
17 *174:9 *249:9 0.0319188
18 *197:9 *249:9 0.02364
19 *204:9 *249:9 0
*RES
1 *874:gpio_dm0[35] *249:7 16.2712 
2 *249:7 *249:9 115.438 
3 *249:9 *249:17 43.5842 
4 *249:17 gpio_dm0[35] 11.7791 
*END

*D_NET *250 0.192287
*CONN
*P gpio_dm0[36] O
*I *874:gpio_dm0[36] O *D counter_gpio_config_example
*CAP
1 gpio_dm0[36] 0.000870269
2 *874:gpio_dm0[36] 0.0849205
3 *250:26 0.0857907
4 *250:26 gpio_dm1[36] 0.00205757
5 *250:26 *294:31 0.0178148
6 *250:26 *416:23 4.84262e-05
7 *250:26 *424:33 2.79505e-05
8 *250:26 *545:10 0.000514606
9 gpio_analog_en[36] gpio_dm0[36] 0.000241762
10 gpio_analog_pol[36] gpio_dm0[36] 0
*RES
1 *874:gpio_dm0[36] *250:26 48.7209 
2 *250:26 gpio_dm0[36] 18.5527 
*END

*D_NET *251 0.173199
*CONN
*P gpio_dm0[37] O
*I *874:gpio_dm0[37] O *D counter_gpio_config_example
*CAP
1 gpio_dm0[37] 0.00125982
2 *874:gpio_dm0[37] 0.0823826
3 *251:24 0.0836424
4 gpio_dm0[37] *427:21 0
5 gpio_dm0[37] *726:21 0.00257482
6 *251:24 *276:11 0.00261876
7 *251:24 *421:7 0.000101554
8 *251:24 *703:131 0.000280518
9 gpio_analog_en[37] gpio_dm0[37] 0.000147005
10 gpio_analog_pol[37] gpio_dm0[37] 0
11 *208:26 *251:24 0.000162798
12 *237:9 *251:24 2.84196e-05
*RES
1 *874:gpio_dm0[37] *251:24 49.7461 
2 *251:24 gpio_dm0[37] 49.9184 
*END

*D_NET *252 0.114279
*CONN
*P gpio_dm0[38] O
*I *874:gpio_dm0[38] O *D counter_gpio_config_example
*CAP
1 gpio_dm0[38] 0.00184604
2 *874:gpio_dm0[38] 0.00786308
3 *252:50 0.00686115
4 *252:48 0.00667937
5 *252:42 0.0198766
6 *252:40 0.0260755
7 gpio_dm0[38] *560:19 0
8 *252:40 *295:20 0.000198807
9 *252:40 *375:13 0.000260856
10 *252:40 *558:16 0.000399045
11 *252:42 gpio_ib_mode_sel[38] 0.000363013
12 *252:42 *692:13 0.000208147
13 *252:48 *434:13 0.00353969
14 *252:50 *560:19 0.00753674
15 gpio_analog_en[38] gpio_dm0[38] 0
16 gpio_analog_pol[38] gpio_dm0[38] 0.000290628
17 *120:10 *252:40 0.000131977
18 *120:10 *252:42 0
19 *208:26 *252:40 0.00373778
20 *208:30 *252:40 0.00166689
21 *208:32 *252:40 1.41114e-05
22 *208:32 *252:42 0.0267292
*RES
1 *874:gpio_dm0[38] *252:40 37.3515 
2 *252:40 *252:42 72.7328 
3 *252:42 *252:48 22.7107 
4 *252:48 *252:50 147.175 
5 *252:50 gpio_dm0[38] 41.2111 
*END

*D_NET *253 0.190585
*CONN
*P gpio_dm0[39] O
*I *874:gpio_dm0[39] O *D counter_gpio_config_example
*CAP
1 gpio_dm0[39] 8.95511e-05
2 *874:gpio_dm0[39] 0.0119262
3 *253:25 0.00406415
4 *253:23 0.00416891
5 *253:21 0.00229777
6 *253:19 0.00210346
7 *253:17 0.0138556
8 *253:15 0.0138556
9 *253:13 0.0414481
10 *253:11 0.0533743
11 *253:11 *294:11 0.00025782
12 *253:11 *398:11 0
13 *253:11 *430:19 0
14 *253:11 *540:11 0
15 *253:13 *540:13 0.0106614
16 *253:17 *258:17 0
17 *253:17 *390:17 0.0319103
18 gpio_analog_en[39] *253:25 0
19 gpio_analog_pol[39] *253:25 0
20 *243:11 *253:11 0.000572173
*RES
1 *874:gpio_dm0[39] *253:11 40.0171 
2 *253:11 *253:13 935.436 
3 *253:13 *253:15 8 
4 *253:15 *253:17 59.9909 
5 *253:17 *253:19 8 
6 *253:19 *253:21 47.1457 
7 *253:21 *253:23 4.43286 
8 *253:23 *253:25 85.7571 
9 *253:25 gpio_dm0[39] 2.16464 
*END

*D_NET *254 0.436184
*CONN
*P gpio_dm0[3] O
*I *874:gpio_dm0[3] O *D counter_gpio_config_example
*CAP
1 gpio_dm0[3] 0.0018491
2 *874:gpio_dm0[3] 0.0129974
3 *254:17 0.0972381
4 *254:15 0.0972626
5 *254:11 0.014871
6 gpio_dm0[3] *342:25 0
7 gpio_dm0[3] *833:13 0
8 *254:11 *319:7 4.41293e-05
9 *254:11 *319:9 0
10 *254:11 *364:9 0
11 *254:11 *474:7 0.00294875
12 *254:17 *298:22 0
13 *104:11 *254:11 0.000323083
14 *122:195 gpio_dm0[3] 0.000544571
15 *122:195 *254:17 0.206937
16 *166:17 gpio_dm0[3] 0
17 *182:13 *254:15 0.000237357
18 *227:9 *254:17 0.000930597
*RES
1 *874:gpio_dm0[3] *254:11 46.8015 
2 *254:11 *254:15 13.768 
3 *254:15 *254:17 399.379 
4 *254:17 gpio_dm0[3] 23.2396 
*END

*D_NET *255 0.171423
*CONN
*P gpio_dm0[40] O
*I *874:gpio_dm0[40] O *D counter_gpio_config_example
*CAP
1 gpio_dm0[40] 0.000122115
2 *874:gpio_dm0[40] 0.00018141
3 *255:17 0.0038967
4 *255:15 0.00384355
5 *255:13 0.032128
6 *255:11 0.0320591
7 *255:9 0.0487153
8 *255:7 0.0488967
9 *255:7 *561:11 3.81941e-05
10 *255:9 *561:11 0.000413383
11 gpio_analog_en[40] *255:17 9.81461e-05
12 *97:11 *255:7 3.37536e-05
13 *97:11 *255:9 0.000997148
14 *167:13 *255:13 0
15 *167:13 *255:17 0
16 *243:17 *255:9 0
*RES
1 *874:gpio_dm0[40] *255:7 0.662667 
2 *255:7 *255:9 142.809 
3 *255:9 *255:11 8 
4 *255:11 *255:13 728.894 
5 *255:13 *255:15 1.57429 
6 *255:15 *255:17 85.7571 
7 *255:17 gpio_dm0[40] 2.95179 
*END

*D_NET *256 0.193412
*CONN
*P gpio_dm0[41] O
*I *874:gpio_dm0[41] O *D counter_gpio_config_example
*CAP
1 gpio_dm0[41] 0.000593626
2 *874:gpio_dm0[41] 0.000174781
3 *256:13 0.0272932
4 *256:11 0.0266996
5 *256:9 0.066798
6 *256:7 0.0669727
7 gpio_dm0[41] *478:9 5.53098e-05
8 gpio_dm0[41] *828:13 0.000436827
9 *256:7 *339:29 4.4107e-05
10 *256:9 *262:9 0
11 *256:9 *339:29 4.8317e-05
12 *256:9 *405:9 0
13 gpio_analog_pol[41] gpio_dm0[41] 0
14 *124:21 gpio_dm0[41] 0
15 *124:21 *256:13 0.00425064
16 *160:15 *256:7 4.49417e-05
*RES
1 *874:gpio_dm0[41] *256:7 0.662667 
2 *256:7 *256:9 193.642 
3 *256:9 *256:11 8 
4 *256:11 *256:13 628.368 
5 *256:13 gpio_dm0[41] 25.3527 
*END

*D_NET *257 0.290945
*CONN
*P gpio_dm0[42] O
*I *874:gpio_dm0[42] O *D counter_gpio_config_example
*CAP
1 gpio_dm0[42] 0.000248726
2 *874:gpio_dm0[42] 0.000227248
3 *257:17 0.0113442
4 *257:15 0.0110955
5 *257:13 0.0482981
6 *257:11 0.0482981
7 *257:9 0.066081
8 *257:7 0.0663082
9 *257:7 *390:11 2.79086e-05
10 *257:7 *541:11 3.11601e-05
11 *257:9 *356:9 0
12 *257:9 *390:11 0.00147731
13 *257:9 *541:11 0.00189541
14 *257:13 *564:14 0
15 *257:17 *345:21 0.0230522
16 *257:17 *433:22 0.00560888
17 *257:17 *478:9 0.00348915
18 *257:17 *828:13 0.0033064
19 *169:25 gpio_dm0[42] 0.00015553
*RES
1 *874:gpio_dm0[42] *257:7 0.662667 
2 *257:7 *257:9 194.93 
3 *257:9 *257:11 8 
4 *257:11 *257:13 1103.76 
5 *257:13 *257:15 8 
6 *257:15 *257:17 50.9749 
7 *257:17 gpio_dm0[42] 14.9289 
*END

*D_NET *258 0.363374
*CONN
*P gpio_dm0[43] O
*I *874:gpio_dm0[43] O *D counter_gpio_config_example
*CAP
1 gpio_dm0[43] 0.000849361
2 *874:gpio_dm0[43] 0.00860656
3 *258:27 0.00106829
4 *258:21 0.00467441
5 *258:19 0.00445548
6 *258:17 0.0862034
7 *258:15 0.0862034
8 *258:13 0.0440884
9 *258:11 0.0526949
10 *258:11 *351:7 2.82839e-05
11 *258:11 *351:9 0.00135667
12 *258:11 *408:11 0.000921028
13 *258:13 *401:13 0.000658401
14 *258:13 *430:15 0.00218815
15 *258:17 *390:17 0
16 *258:17 *473:11 0.0339267
17 *258:17 *741:9 0
18 *98:13 *258:13 0.0238994
19 *126:21 gpio_dm0[43] 0
20 *126:21 *258:21 0.00500192
21 *145:11 *258:11 0
22 *170:21 gpio_dm0[43] 0
23 *177:13 *258:13 0.00654961
24 *253:17 *258:17 0
*RES
1 *874:gpio_dm0[43] *258:11 31.0869 
2 *258:11 *258:13 1101.65 
3 *258:13 *258:15 8 
4 *258:15 *258:17 273.713 
5 *258:17 *258:19 8 
6 *258:19 *258:21 121.458 
7 *258:21 *258:27 33.9564 
8 *258:27 gpio_dm0[43] 19.285 
*END

*D_NET *259 0.518874
*CONN
*P gpio_dm0[4] O
*I *874:gpio_dm0[4] O *D counter_gpio_config_example
*CAP
1 gpio_dm0[4] 0.00164844
2 *874:gpio_dm0[4] 0.00420601
3 *259:40 0
4 *259:29 0.104176
5 *259:27 0.103536
6 *259:17 0.0133453
7 *259:15 0.0257355
8 *259:7 0.0176049
9 gpio_dm0[4] *833:13 0
10 *259:7 *332:7 0.000635175
11 *259:7 *369:7 0.000345763
12 *259:7 *418:7 0
13 *259:15 *550:7 2.047e-05
14 *259:17 *295:20 0.000979681
15 *259:17 *329:9 0.00014199
16 *259:17 *421:9 0.00907784
17 *259:17 *565:9 0.0090731
18 *259:27 *734:9 0.00210217
19 *259:27 *735:9 0.00212448
20 *259:29 *278:25 0.00789844
21 *259:29 *282:17 0.00643857
22 *259:29 *562:9 0.00412196
23 *259:29 *661:17 0.00480898
24 *259:29 *694:9 0.00168777
25 *259:29 *716:19 0.00432885
26 *259:29 *733:9 0.00287459
27 *259:29 *735:9 0.000279091
28 *259:29 *787:9 0.00106815
29 *259:29 *793:11 0.000637424
30 *259:29 *804:9 0.130047
31 gpio_analog_en[4] gpio_dm0[4] 0.00154859
32 gpio_analog_pol[4] gpio_dm0[4] 0.00191955
33 *99:9 *259:27 2.33476e-05
34 *101:9 *259:17 0.00025212
35 *198:7 *259:15 1.40476e-05
36 *215:9 *259:17 0.0267859
37 *217:9 *259:17 0.0289959
38 *238:17 *259:29 0.000391438
*RES
1 *874:gpio_dm0[4] *259:7 18.8472 
2 *259:7 *259:15 48.9037 
3 *259:15 *259:17 610.056 
4 *259:17 *259:27 35.5845 
5 *259:27 *259:29 3086.93 
6 *259:29 gpio_dm0[4] 41.9583 
7 gpio_dm0[4] *259:40 0.0908108 
*END

*D_NET *260 0.629627
*CONN
*P gpio_dm0[5] O
*I *874:gpio_dm0[5] O *D counter_gpio_config_example
*CAP
1 gpio_dm0[5] 0.00179224
2 *874:gpio_dm0[5] 0.00417572
3 *260:13 0.1512
4 *260:11 0.149407
5 *260:9 0.0139777
6 *260:7 0.0181535
7 gpio_dm0[5] *833:13 0
8 *260:7 *336:7 0.000636422
9 *260:7 *384:7 0.000128505
10 *260:9 *689:13 0.0081354
11 *260:9 *691:13 0.00702344
12 *260:13 *281:19 0
13 *260:13 *304:13 0
14 gpio_analog_en[5] gpio_dm0[5] 0.000384918
15 gpio_analog_en[5] *260:13 0.000922633
16 *128:21 *260:13 0.225219
17 *172:17 gpio_dm0[5] 0.000384918
18 *173:9 *260:9 0.0480859
19 *219:7 *260:7 0
*RES
1 *874:gpio_dm0[5] *260:7 17.6021 
2 *260:7 *260:9 619.916 
3 *260:9 *260:11 8 
4 *260:11 *260:13 559.391 
5 *260:13 gpio_dm0[5] 24.6183 
*END

*D_NET *261 0.383639
*CONN
*P gpio_dm0[6] O
*I *874:gpio_dm0[6] O *D counter_gpio_config_example
*CAP
1 gpio_dm0[6] 0.00521368
2 *874:gpio_dm0[6] 0.000233685
3 *261:13 0.0295528
4 *261:11 0.0243391
5 *261:9 0.144228
6 *261:7 0.144462
7 *261:7 *539:7 3.6737e-05
8 *261:9 *539:7 3.1594e-06
9 *261:9 *539:9 0.00696218
10 *261:13 *331:13 0.00232002
11 *261:13 *570:14 0.00143993
12 *92:13 *261:13 0.0197648
13 *129:13 gpio_dm0[6] 0.00463308
14 *148:11 *261:7 3.98964e-05
15 *148:11 *261:9 0.000410913
16 *173:13 gpio_dm0[6] 0
*RES
1 *874:gpio_dm0[6] *261:7 0.662667 
2 *261:7 *261:9 426.985 
3 *261:9 *261:11 8 
4 *261:11 *261:13 99.8256 
5 *261:13 gpio_dm0[6] 23.3487 
*END

*D_NET *262 0.558641
*CONN
*P gpio_dm0[7] O
*I *874:gpio_dm0[7] O *D counter_gpio_config_example
*CAP
1 gpio_dm0[7] 0.00413626
2 *874:gpio_dm0[7] 0.000166537
3 *262:13 0.12783
4 *262:11 0.123694
5 *262:9 0.141437
6 *262:7 0.141603
7 gpio_dm0[7] gpio_inp_dis[7] 0.00395824
8 *262:7 *339:29 5.20351e-05
9 *262:7 *403:7 3.37536e-05
10 *262:9 *339:29 3.67308e-05
11 *262:9 *403:7 5.66735e-06
12 *262:9 *403:9 0.00664434
13 gpio_analog_en[7] gpio_dm0[7] 0
14 gpio_analog_pol[7] gpio_dm0[7] 0.00192596
15 *131:13 *262:13 0
16 *174:13 gpio_dm0[7] 0.00711845
17 *256:9 *262:9 0
*RES
1 *874:gpio_dm0[7] *262:7 0.662667 
2 *262:7 *262:9 424.066 
3 *262:9 *262:11 8 
4 *262:11 *262:13 362.451 
5 *262:13 gpio_dm0[7] 25.5831 
*END

*D_NET *263 0.658993
*CONN
*P gpio_dm0[8] O
*I *874:gpio_dm0[8] O *D counter_gpio_config_example
*CAP
1 gpio_dm0[8] 0.00202971
2 *874:gpio_dm0[8] 0.00555532
3 *263:17 0.145124
4 *263:15 0.143094
5 *263:13 0.137757
6 *263:11 0.143312
7 gpio_dm0[8] *571:26 3.52047e-05
8 *263:11 *419:11 0.00064158
9 *263:13 *310:13 0
10 *263:13 *441:11 0.013671
11 *263:17 *307:21 0
12 *263:17 *571:26 0
13 gpio_analog_en[8] gpio_dm0[8] 0.000624818
14 gpio_analog_en[8] *263:17 0.00515891
15 gpio_analog_pol[8] gpio_dm0[8] 0
16 *97:13 *263:13 0.0587688
17 *124:13 *263:13 0.00322113
*RES
1 *874:gpio_dm0[8] *263:11 24.5181 
2 *263:11 *263:13 415.509 
3 *263:13 *263:15 8 
4 *263:15 *263:17 421.361 
5 *263:17 gpio_dm0[8] 24.5114 
*END

*D_NET *264 0.924454
*CONN
*P gpio_dm0[9] O
*I *874:gpio_dm0[9] O *D counter_gpio_config_example
*CAP
1 gpio_dm0[9] 0.00134788
2 *874:gpio_dm0[9] 0.00073165
3 *264:13 0.133
4 *264:11 0.131652
5 *264:9 0.0579035
6 *264:7 0.0586351
7 *264:7 *554:7 9.34102e-05
8 *264:9 *384:9 0.0164303
9 *264:13 *308:17 0
10 gpio_analog_pol[9] gpio_dm0[9] 0.00038764
11 *132:13 gpio_dm0[9] 0.00192596
12 *132:13 *264:13 0.29148
13 *135:9 *264:7 8.25082e-05
14 *201:7 *264:7 0
15 *223:9 *264:9 0.000845505
16 *224:9 *264:9 0.174592
17 *228:9 *264:9 0.0553464
*RES
1 *874:gpio_dm0[9] *264:7 9.78827 
2 *264:7 *264:9 2456.69 
3 *264:9 *264:11 8 
4 *264:11 *264:13 551.578 
5 *264:13 gpio_dm0[9] 21.7414 
*END

*D_NET *265 0.414445
*CONN
*P gpio_dm1[0] O
*I *874:gpio_dm1[0] O *D counter_gpio_config_example
*CAP
1 gpio_dm1[0] 0.0140421
2 *874:gpio_dm1[0] 0.000148659
3 *265:13 0.0687824
4 *265:11 0.0547403
5 *265:9 0.138277
6 *265:7 0.138425
7 *265:7 *346:11 2.35779e-05
8 *265:9 *346:11 2.23456e-06
9 *265:9 *567:31 0
10 gpio_analog_en[0] gpio_dm1[0] 3.4377e-06
11 *176:11 *265:7 0
12 *176:11 *265:9 0
13 *221:17 gpio_dm1[0] 0
*RES
1 *874:gpio_dm1[0] *265:7 0.490933 
2 *265:7 *265:9 405.003 
3 *265:9 *265:11 8 
4 *265:11 *265:13 168.877 
5 *265:13 gpio_dm1[0] 45.7132 
*END

*D_NET *266 0.808492
*CONN
*P gpio_dm1[10] O
*I *874:gpio_dm1[10] O *D counter_gpio_config_example
*CAP
1 gpio_dm1[10] 0.0039111
2 *874:gpio_dm1[10] 0.0112653
3 *266:21 0.191365
4 *266:19 0.187454
5 *266:17 0.059862
6 *266:15 0.0602317
7 *266:9 0.011635
8 *266:9 *288:7 0
9 *266:9 *300:7 6.91339e-05
10 *266:9 *391:9 0.0160793
11 *266:9 *532:17 0
12 *266:17 *324:17 0
13 *266:21 *750:17 0
14 *90:17 *266:21 0
15 *129:9 *266:17 0.00940857
16 *132:7 *266:15 6.52177e-06
17 *132:9 *266:17 0.0218913
18 *135:11 *266:17 0.194375
19 *139:9 *266:17 0.00342026
20 *141:9 *266:17 0.0374636
21 *242:7 *266:15 5.5476e-05
*RES
1 *874:gpio_dm1[10] *266:9 49.2253 
2 *266:9 *266:15 16.7 
3 *266:15 *266:17 2477.12 
4 *266:17 *266:19 8 
5 *266:19 *266:21 546.383 
6 *266:21 gpio_dm1[10] 8.80413 
*END

*D_NET *267 0.587512
*CONN
*P gpio_dm1[11] O
*I *874:gpio_dm1[11] O *D counter_gpio_config_example
*CAP
1 gpio_dm1[11] 0.000145193
2 *874:gpio_dm1[11] 0.000245493
3 *267:17 0.133871
4 *267:15 0.133726
5 *267:13 0.139551
6 *267:11 0.139551
7 *267:9 0.0182238
8 *267:7 0.0184693
9 *267:7 *313:7 2.82839e-05
10 *267:9 *313:7 3.1594e-06
11 *267:9 *313:9 0.00346668
12 *91:21 *267:17 0
13 *112:11 *267:7 3.14433e-05
14 *112:11 *267:9 0.000199417
15 *211:11 *267:9 0
*RES
1 *874:gpio_dm1[11] *267:7 0.662667 
2 *267:7 *267:9 53.1216 
3 *267:9 *267:11 8 
4 *267:11 *267:13 435.818 
5 *267:13 *267:15 8 
6 *267:15 *267:17 388.401 
7 *267:17 gpio_dm1[11] 0.5572 
*END

*D_NET *268 0.858184
*CONN
*P gpio_dm1[12] O
*I *874:gpio_dm1[12] O *D counter_gpio_config_example
*CAP
1 gpio_dm1[12] 4.07728e-05
2 *874:gpio_dm1[12] 0.0105124
3 *268:21 0.192877
4 *268:19 0.192836
5 *268:17 0.0971091
6 *268:15 0.0975021
7 *268:9 0.0109055
8 *268:9 *284:9 0.00995309
9 *268:9 *406:7 0.000320993
10 *268:17 *374:9 0.0151817
11 gpio_analog_en[12] *268:21 0.00374408
12 *107:9 *268:17 0.00544381
13 *119:7 *268:9 0.00104722
14 *162:9 *268:17 0.00412152
15 *178:9 *268:15 3.38295e-05
16 *178:17 *268:17 0.208146
17 *193:9 *268:17 0
18 *196:9 *268:9 0
19 *241:19 *268:17 0.00840934
*RES
1 *874:gpio_dm1[12] *268:9 46.1117 
2 *268:9 *268:15 16.8717 
3 *268:15 *268:17 3209.57 
4 *268:17 *268:19 8 
5 *268:19 *268:21 566.703 
6 *268:21 gpio_dm1[12] 0.161467 
*END

*D_NET *269 0.685815
*CONN
*P gpio_dm1[13] O
*I *874:gpio_dm1[13] O *D counter_gpio_config_example
*CAP
1 gpio_dm1[13] 0.000236638
2 *874:gpio_dm1[13] 0.000239925
3 *269:17 0.131244
4 *269:15 0.131007
5 *269:13 0.189894
6 *269:11 0.189894
7 *269:9 0.0213677
8 *269:7 0.0216077
9 *269:7 *297:7 0
10 *269:9 *297:9 0
11 *269:9 *364:9 0
12 *269:13 *308:13 0
13 *269:17 *753:25 0
14 *93:21 *269:17 0
15 *166:13 *269:13 0
16 *238:11 *269:7 2.49637e-05
17 *238:11 *269:9 0.000300121
*RES
1 *874:gpio_dm1[13] *269:7 0.662667 
2 *269:7 *269:9 59.6475 
3 *269:9 *269:11 8 
4 *269:11 *269:13 591.819 
5 *269:13 *269:15 8 
6 *269:15 *269:17 381.875 
7 *269:17 gpio_dm1[13] 0.908133 
*END

*D_NET *270 0.777019
*CONN
*P gpio_dm1[14] O
*I *874:gpio_dm1[14] O *D counter_gpio_config_example
*CAP
1 gpio_dm1[14] 0.00013352
2 *874:gpio_dm1[14] 0.000196403
3 *270:17 0.128907
4 *270:15 0.128774
5 *270:13 0.236231
6 *270:11 0.236231
7 *270:9 0.0229448
8 *270:7 0.0231412
9 *270:9 *335:11 0
10 *270:17 *754:25 0
11 *270:17 *759:9 0
12 *94:17 *270:17 0
13 *149:11 *270:7 3.3057e-05
14 *149:11 *270:9 0.00039
15 *165:9 *270:9 0
16 *200:11 *270:7 3.64947e-05
*RES
1 *874:gpio_dm1[14] *270:7 0.662667 
2 *270:7 *270:9 66.0016 
3 *270:9 *270:11 8 
4 *270:11 *270:13 734.492 
5 *270:13 *270:15 8 
6 *270:15 *270:17 375.521 
7 *270:17 gpio_dm1[14] 0.5124 
*END

*D_NET *271 0.814011
*CONN
*P gpio_dm1[15] O
*I *874:gpio_dm1[15] O *D counter_gpio_config_example
*CAP
1 gpio_dm1[15] 7.90936e-05
2 *874:gpio_dm1[15] 0.000883783
3 *271:25 0.162261
4 *271:23 0.162182
5 *271:21 0.117125
6 *271:19 0.11728
7 *271:13 0.00513993
8 *271:9 0.0161108
9 *271:7 0.0120099
10 *271:7 *309:7 6.95932e-05
11 *271:7 *532:17 0.000186094
12 *271:9 *360:9 0.0415006
13 *271:9 *663:9 0
14 *271:13 *323:13 0.000258271
15 *271:13 *544:17 0.016563
16 *271:19 *668:5 0
17 *271:19 *704:5 6.21966e-05
18 *271:21 *323:13 0.000119639
19 *271:21 *743:17 0.0535734
20 *103:27 *271:21 0.000190284
21 *104:27 *271:13 0.00241239
22 *147:21 *271:13 0.0181882
23 *229:9 *271:9 0.000668447
24 *233:9 *271:9 0.0291364
25 *233:13 *271:13 0.000728231
26 *233:21 *271:21 0.0572824
*RES
1 *874:gpio_dm1[15] *271:7 10.1317 
2 *271:7 *271:9 553.714 
3 *271:9 *271:13 43.4331 
4 *271:13 *271:19 26.1382 
5 *271:19 *271:21 2690.06 
6 *271:21 *271:23 15 
7 *271:23 *271:25 3634.79 
8 *271:25 gpio_dm1[15] 1.86429 
*END

*D_NET *272 1.0605
*CONN
*P gpio_dm1[16] O
*I *874:gpio_dm1[16] O *D counter_gpio_config_example
*CAP
1 gpio_dm1[16] 0.000941393
2 *874:gpio_dm1[16] 0.00545302
3 *272:21 0.0311961
4 *272:19 0.0317471
5 *272:9 0.150773
6 *272:7 0.154734
7 *272:7 *393:7 0.00117166
8 *272:9 *288:9 0.00172215
9 *272:9 *382:9 0
10 *272:9 *396:17 0.000276768
11 *272:9 *469:11 0
12 *272:9 *775:19 0.00094824
13 *272:19 *279:13 0.00370994
14 *272:21 *274:13 0.00659255
15 *272:21 *319:19 0.000487324
16 *272:21 *366:13 0.000151983
17 *95:9 *272:19 0
18 *96:13 *272:21 0
19 *102:9 *272:19 0
20 *161:7 *272:7 0.00116778
21 *183:19 *272:19 0.000664068
22 *183:21 *272:21 0.223745
23 *184:19 *272:19 0.0016799
24 *184:21 *272:21 0.220734
25 *189:13 *272:21 0.0138372
26 *201:9 *272:9 0.014003
27 *220:17 *272:9 0.194763
*RES
1 *874:gpio_dm1[16] *272:7 23.6987 
2 *272:7 *272:9 4371.65 
3 *272:9 *272:19 43.0819 
4 *272:19 *272:21 2394.68 
5 *272:21 gpio_dm1[16] 35.6729 
*END

*D_NET *273 0.553885
*CONN
*P gpio_dm1[17] O
*I *874:gpio_dm1[17] O *D counter_gpio_config_example
*CAP
1 gpio_dm1[17] 0.178432
2 *874:gpio_dm1[17] 0.000136774
3 *273:11 0.178432
4 *273:9 0.0903759
5 *273:7 0.0905127
6 *273:7 *357:11 2.70992e-05
7 *273:9 *276:11 0.0152029
8 *273:9 *357:11 0.000730889
9 *273:9 *409:11 0
10 *158:9 *273:7 3.05369e-05
11 *158:9 *273:9 3.55389e-06
12 *243:17 *273:9 0
*RES
1 *874:gpio_dm1[17] *273:7 0.490933 
2 *273:7 *273:9 263.109 
3 *273:9 *273:11 8 
4 *273:11 gpio_dm1[17] 4136.34 
*END

*D_NET *274 1.02995
*CONN
*P gpio_dm1[18] O
*I *874:gpio_dm1[18] O *D counter_gpio_config_example
*CAP
1 gpio_dm1[18] 0.00103496
2 *874:gpio_dm1[18] 0.00261464
3 *274:13 0.0563523
4 *274:11 0.0553173
5 *274:9 0.12757
6 *274:7 0.130184
7 gpio_dm1[18] *450:13 0
8 *274:7 *547:7 0.000620902
9 *274:9 *283:17 0.0352016
10 *274:9 *325:9 0.00842384
11 *274:9 *470:11 0
12 *274:9 *471:11 0
13 *274:13 gpio_dm1[19] 0
14 *274:13 gpio_dm2[18] 0
15 *274:13 *319:19 0.00606709
16 *274:13 *361:13 0.155463
17 *274:13 *365:13 0.0779185
18 *95:9 *274:9 2.02791e-05
19 *96:9 *274:9 0.350547
20 *101:17 *274:13 0.00130328
21 *117:23 *274:9 0.000774816
22 *150:7 *274:7 0.000620902
23 *154:9 *274:9 0
24 *154:17 *274:9 0.00131164
25 *184:19 *274:9 0.000216264
26 *184:21 *274:13 0.00659255
27 *197:9 *274:9 0.000117896
28 *249:9 *274:9 0.00508112
29 *272:21 *274:13 0.00659255
*RES
1 *874:gpio_dm1[18] *274:7 15.9707 
2 *274:7 *274:9 4570.96 
3 *274:9 *274:11 8 
4 *274:11 *274:13 299.988 
5 *274:13 gpio_dm1[18] 31.3139 
*END

*D_NET *275 0.426116
*CONN
*P gpio_dm1[19] O
*I *874:gpio_dm1[19] O *D counter_gpio_config_example
*CAP
1 gpio_dm1[19] 0.00438413
2 *874:gpio_dm1[19] 0.000173626
3 *275:13 0.186567
4 *275:11 0.182183
5 *275:9 0.023017
6 *275:7 0.0231906
7 gpio_dm1[19] gpio_out[19] 0
8 gpio_dm1[19] *319:19 0
9 *275:7 *348:7 4.21669e-05
10 *275:7 *348:9 6.73098e-06
11 *275:7 *378:11 4.21669e-05
12 *275:9 *348:9 0.00640979
13 *275:9 *378:11 0.000100094
14 *275:9 *555:11 0
15 *274:13 gpio_dm1[19] 0
*RES
1 *874:gpio_dm1[19] *275:7 0.662667 
2 *275:7 *275:9 73.8584 
3 *275:9 *275:11 8 
4 *275:11 *275:13 4211.07 
5 *275:13 gpio_dm1[19] 44.0223 
*END

*D_NET *276 0.575986
*CONN
*P gpio_dm1[1] O
*I *874:gpio_dm1[1] O *D counter_gpio_config_example
*CAP
1 gpio_dm1[1] 0.00188439
2 *874:gpio_dm1[1] 5.75465e-05
3 *276:23 0.0108541
4 *276:15 0.0226224
5 *276:11 0.264094
6 *276:9 0.250499
7 *276:11 *409:11 0.00159968
8 gpio_analog_en[1] gpio_dm1[1] 0
9 gpio_analog_en[1] *276:23 0.00615239
10 gpio_analog_pol[1] *276:23 0
11 gpio_dm0[1] *276:23 0.000387076
12 *137:17 *276:15 0
13 *155:25 *276:23 0
14 *232:18 gpio_dm1[1] 1.39834e-05
15 *251:24 *276:11 0.00261876
16 *273:9 *276:11 0.0152029
*RES
1 *874:gpio_dm1[1] *276:9 9.04593 
2 *276:9 *276:11 62.573 
3 *276:11 *276:15 42.3273 
4 *276:15 *276:23 48.823 
5 *276:23 gpio_dm1[1] 12.2047 
*END

*D_NET *277 0.394309
*CONN
*P gpio_dm1[20] O
*I *874:gpio_dm1[20] O *D counter_gpio_config_example
*CAP
1 gpio_dm1[20] 9.04367e-05
2 *874:gpio_dm1[20] 0.0119788
3 *277:13 0.13801
4 *277:11 0.149899
5 *277:11 *386:7 3.37536e-05
6 *277:11 *386:9 0.00240185
7 *277:13 *445:11 0.0894592
8 *181:7 *277:11 3.81941e-05
9 *181:9 *277:11 0.00239741
*RES
1 *874:gpio_dm1[20] *277:11 45.4267 
2 *277:11 *277:13 4068.1 
3 *277:13 gpio_dm1[20] 1.86429 
*END

*D_NET *278 0.43912
*CONN
*P gpio_dm1[21] O
*I *874:gpio_dm1[21] O *D counter_gpio_config_example
*CAP
1 gpio_dm1[21] 9.04367e-05
2 *874:gpio_dm1[21] 0.00143695
3 *278:29 0.163974
4 *278:27 0.163883
5 *278:25 0.00146075
6 *278:23 0.00146075
7 *278:21 0.000839812
8 *278:19 0.00106115
9 *278:13 0.0194454
10 *278:11 0.0206611
11 *278:11 *303:7 3.60172e-05
12 *278:11 *303:9 0.000194843
13 *278:11 *310:11 0
14 *278:11 *672:17 0.000370809
15 *278:13 *474:11 0
16 *278:13 *672:13 0
17 *278:13 *705:41 0
18 *278:21 *367:17 4.48106e-05
19 *278:21 *661:21 0.00316221
20 *278:21 *705:41 0.00306419
21 *278:25 *787:9 0.000824128
22 *278:25 *804:9 0.00789612
23 *104:13 *278:13 0.0189294
24 *106:13 *278:21 0
25 *108:13 *278:13 0.0156145
26 *112:13 *278:13 0.00675206
27 *137:11 *278:11 1.928e-05
28 *259:29 *278:25 0.00789844
*RES
1 *874:gpio_dm1[21] *278:11 12.5397 
2 *278:11 *278:13 626.431 
3 *278:13 *278:19 33.0036 
4 *278:19 *278:21 42.7543 
5 *278:21 *278:23 15 
6 *278:23 *278:25 86.855 
7 *278:25 *278:27 15 
8 *278:27 *278:29 3652.75 
9 *278:29 gpio_dm1[21] 1.86429 
*END

*D_NET *279 0.580209
*CONN
*P gpio_dm1[22] O
*I *874:gpio_dm1[22] O *D counter_gpio_config_example
*CAP
1 gpio_dm1[22] 0.00120014
2 *874:gpio_dm1[22] 0.00674817
3 *279:13 0.0175978
4 *279:11 0.0163977
5 *279:9 0.160498
6 *279:7 0.167246
7 *279:7 *325:7 0.000518085
8 *279:9 *395:9 0.168918
9 *279:9 *735:13 0
10 *279:9 *823:10 0
11 *279:13 *361:13 0.0368075
12 *279:13 *676:9 0
13 *91:7 *279:7 0.000401987
14 *163:7 *279:7 0
15 *184:19 *279:13 0.000166377
16 *272:19 *279:13 0.00370994
*RES
1 *874:gpio_dm1[22] *279:7 26.2747 
2 *279:7 *279:9 4506.17 
3 *279:9 *279:11 8 
4 *279:11 *279:13 71.1536 
5 *279:13 gpio_dm1[22] 32.7225 
*END

*D_NET *280 0.657783
*CONN
*P gpio_dm1[23] O
*I *874:gpio_dm1[23] O *D counter_gpio_config_example
*CAP
1 gpio_dm1[23] 0.00479791
2 *874:gpio_dm1[23] 0.00816562
3 *280:9 0.133593
4 *280:7 0.136961
5 *280:9 *289:9 0.00148997
6 *280:9 *366:9 0.321123
7 *280:9 *373:17 0.0237648
8 gpio_analog_en[23] gpio_dm1[23] 0
9 *96:7 *280:7 0.000478862
10 *99:13 gpio_dm1[23] 0.00282879
11 *157:9 *280:9 0.00079335
12 *161:9 *280:9 0.00617934
13 *163:9 *280:9 0.00105777
14 *191:13 gpio_dm1[23] 0.0104797
15 *206:9 *280:9 0.00408118
16 *228:7 *280:7 0.000110411
17 *248:9 *280:9 0.00187872
*RES
1 *874:gpio_dm1[23] *280:7 28.8507 
2 *280:7 *280:9 4482.22 
3 *280:9 gpio_dm1[23] 45.9365 
*END

*D_NET *281 0.71201
*CONN
*P gpio_dm1[24] O
*I *874:gpio_dm1[24] O *D counter_gpio_config_example
*CAP
1 gpio_dm1[24] 2.69958e-05
2 *874:gpio_dm1[24] 0.00253522
3 *281:25 0.0414908
4 *281:23 0.0414638
5 *281:21 0.149646
6 *281:19 0.149691
7 *281:13 0.0389456
8 *281:11 0.0414354
9 *281:11 *298:16 0.00052576
10 *281:11 *419:11 0.000824084
11 *281:13 *357:17 0.00105223
12 *281:13 *376:13 0.000322604
13 *281:13 *419:13 0.000122544
14 *281:13 *444:11 0
15 *281:13 *683:13 0
16 *281:13 *749:25 0
17 *281:13 *826:18 0
18 *281:19 *797:9 4.59167e-06
19 *281:21 *326:21 0
20 *281:21 *423:13 0.000948654
21 *281:25 gpio_slow_sel[24] 0
22 *281:25 *402:13 0.000759102
23 *281:25 *666:21 0.066318
24 *131:7 *281:11 5.20351e-05
25 *131:9 *281:11 0.000769671
26 *153:13 *281:21 0
27 *239:13 *281:13 0.0113034
28 *239:21 *281:13 0.00282493
29 *239:21 *281:21 0.160947
30 *260:13 *281:19 0
*RES
1 *874:gpio_dm1[24] *281:11 17.52 
2 *281:11 *281:13 918.534 
3 *281:13 *281:19 16.0989 
4 *281:19 *281:21 591.565 
5 *281:21 *281:23 8 
6 *281:23 *281:25 158.452 
7 *281:25 gpio_dm1[24] 0.1036 
*END

*D_NET *282 0.525006
*CONN
*P gpio_dm1[25] O
*I *874:gpio_dm1[25] O *D counter_gpio_config_example
*CAP
1 gpio_dm1[25] 3.62375e-05
2 *874:gpio_dm1[25] 0.00273986
3 *282:33 0.0509615
4 *282:31 0.0509253
5 *282:29 0.116915
6 *282:27 0.117127
7 *282:17 0.00159625
8 *282:15 0.00138466
9 *282:13 0.00738356
10 *282:11 0.0101234
11 *282:11 *299:7 3.64069e-05
12 *282:11 *299:9 0.000373249
13 *282:13 *415:13 0.000265953
14 *282:13 *479:11 0
15 *282:17 *694:9 0.000485797
16 *282:17 *716:19 0.000180711
17 *282:27 *425:17 4.62763e-05
18 *282:29 *451:13 0
19 *282:29 *453:17 0.102469
20 *282:33 *766:9 0
21 *106:25 *282:33 0
22 *121:11 *282:11 0
23 *148:13 *282:13 6.39507e-05
24 *149:13 *282:13 0.0297933
25 *205:13 *282:13 0.0192386
26 *238:17 *282:17 0.00597579
27 *240:19 *282:27 5.10545e-05
28 *246:35 *282:13 0.000243457
29 *246:37 *282:13 0.000151253
30 *259:29 *282:17 0.00643857
*RES
1 *874:gpio_dm1[25] *282:11 15.0299 
2 *282:11 *282:13 383.1 
3 *282:13 *282:15 15 
4 *282:15 *282:17 71.1329 
5 *282:17 *282:27 33.5329 
6 *282:27 *282:29 471.867 
7 *282:29 *282:31 8 
8 *282:31 *282:33 143.168 
9 *282:33 gpio_dm1[25] 0.139067 
*END

*D_NET *283 0.609425
*CONN
*P gpio_dm1[26] O
*I *874:gpio_dm1[26] O *D counter_gpio_config_example
*CAP
1 gpio_dm1[26] 0.0116856
2 *874:gpio_dm1[26] 0.00264354
3 *283:17 0.0856172
4 *283:15 0.0742864
5 *283:9 0.0175551
6 *283:7 0.0198438
7 *283:9 *377:9 0.0659215
8 *283:9 *402:9 0.0163567
9 *283:9 *779:18 0.00077249
10 *283:15 *380:17 0
11 *283:15 *556:17 0
12 *283:17 *325:9 0.00365578
13 gpio_analog_en[26] gpio_dm1[26] 0.000585488
14 gpio_analog_sel[34] *283:15 0.000283821
15 *91:9 *283:9 0.00168389
16 *91:17 *283:9 0.0156592
17 *95:9 *283:17 0.00499265
18 *96:9 *283:17 0.0118288
19 *105:17 *283:17 0
20 *115:9 *283:9 0.0071197
21 *123:9 *283:9 0.00980865
22 *154:9 *283:9 0.000493703
23 *154:17 *283:17 0.11678
24 *174:9 *283:17 0.0913009
25 *183:7 *283:7 0.000420874
26 *196:7 *283:7 0.000420874
27 *197:9 *283:17 0.0145074
28 *274:9 *283:17 0.0352016
*RES
1 *874:gpio_dm1[26] *283:7 15.0261 
2 *283:7 *283:9 984.736 
3 *283:9 *283:15 16.9576 
4 *283:15 *283:17 405.862 
5 *283:17 gpio_dm1[26] 38.7095 
*END

*D_NET *284 0.518475
*CONN
*P gpio_dm1[27] O
*I *874:gpio_dm1[27] O *D counter_gpio_config_example
*CAP
1 gpio_dm1[27] 0.00971948
2 *874:gpio_dm1[27] 0.00503805
3 *284:9 0.104438
4 *284:7 0.0997565
5 *284:7 *307:7 0
6 *284:9 *328:9 0
7 *284:9 *374:9 0.000810383
8 *284:9 *822:10 0.00497265
9 gpio_analog_en[27] gpio_dm1[27] 0
10 gpio_dm0[27] gpio_dm1[27] 0
11 *107:9 *284:9 0.202321
12 *162:9 *284:9 0.00440063
13 *163:7 *284:7 0.00107041
14 *178:9 *284:9 0.00872164
15 *193:9 *284:9 0.00266408
16 *193:17 *284:9 0.0646096
17 *196:9 *284:9 0
18 *247:9 *284:9 0
19 *268:9 *284:9 0.00995309
*RES
1 *874:gpio_dm1[27] *284:7 21.7667 
2 *284:7 *284:9 547.139 
3 *284:9 gpio_dm1[27] 32.5345 
*END

*D_NET *285 0.412396
*CONN
*P gpio_dm1[28] O
*I *874:gpio_dm1[28] O *D counter_gpio_config_example
*CAP
1 gpio_dm1[28] 0.0063587
2 *874:gpio_dm1[28] 0.00828084
3 *285:9 0.135951
4 *285:7 0.137873
5 *285:7 *554:7 0.00165105
6 *285:9 *327:9 0
7 *285:9 *413:17 0
8 *285:9 *414:9 0.029059
9 *285:9 *464:11 0.00260774
10 *109:17 gpio_dm1[28] 0
11 *198:7 *285:7 0.00164592
12 *198:9 *285:9 0
13 *202:9 *285:9 0.0889692
*RES
1 *874:gpio_dm1[28] *285:7 30.8685 
2 *285:7 *285:9 462.093 
3 *285:9 gpio_dm1[28] 22.9847 
*END

*D_NET *286 0.61251
*CONN
*P gpio_dm1[29] O
*I *874:gpio_dm1[29] O *D counter_gpio_config_example
*CAP
1 gpio_dm1[29] 0.00165279
2 *874:gpio_dm1[29] 0.00317871
3 *286:25 0.0389541
4 *286:23 0.0373013
5 *286:21 0.0421083
6 *286:19 0.0455626
7 *286:13 0.0204652
8 *286:11 0.0201896
9 gpio_dm1[29] *462:13 0.000334432
10 *286:13 *357:17 0.00172052
11 *286:13 *376:13 0
12 *286:13 *423:13 0.00595326
13 *286:13 *444:11 0.00183856
14 *286:13 *446:11 0.00100836
15 *286:13 *826:18 0.00162876
16 *286:19 *326:19 4.02281e-06
17 *286:19 *787:9 0.00195943
18 *286:19 *804:9 0.000100139
19 gpio_analog_pol[29] *286:25 0
20 gpio_dm0[29] *286:25 0
21 *110:6 *286:21 0.127404
22 *110:10 gpio_dm1[29] 0.00020385
23 *110:10 *286:25 0.076663
24 *153:13 *286:13 0.00952183
25 *167:7 *286:11 4.58975e-05
26 *167:9 *286:11 0.00061911
27 *176:13 *286:19 0
28 *182:11 *286:11 0.000521828
29 *205:17 *286:19 0.000246011
30 *236:9 *286:21 0.0414606
31 *237:9 *286:21 0.127401
32 *239:21 *286:13 0.00163509
33 *240:19 *286:19 0.00282784
*RES
1 *874:gpio_dm1[29] *286:11 16.9619 
2 *286:11 *286:13 59.7147 
3 *286:13 *286:19 24.6427 
4 *286:19 *286:21 309.9 
5 *286:21 *286:23 8 
6 *286:23 *286:25 146.158 
7 *286:25 gpio_dm1[29] 23.937 
*END

*D_NET *287 0.316213
*CONN
*P gpio_dm1[2] O
*I *874:gpio_dm1[2] O *D counter_gpio_config_example
*CAP
1 gpio_dm1[2] 0.000215236
2 *874:gpio_dm1[2] 0.000203438
3 *287:17 0.127931
4 *287:15 0.133065
5 *287:9 0.0276406
6 *287:7 0.0224949
7 *287:7 *358:7 0
8 *287:7 *387:7 3.14503e-05
9 *287:9 *358:9 0
10 *287:9 *387:7 4.44857e-06
11 *287:9 *387:9 0.00460598
12 *287:15 *355:13 2.13985e-05
13 *287:17 *771:21 0
14 gpio_analog_en[2] *287:17 0
*RES
1 *874:gpio_dm1[2] *287:7 0.662667 
2 *287:7 *287:9 68.7493 
3 *287:9 *287:15 31.9227 
4 *287:15 *287:17 372.773 
5 *287:17 gpio_dm1[2] 0.826 
*END

*D_NET *288 0.41724
*CONN
*P gpio_dm1[30] O
*I *874:gpio_dm1[30] O *D counter_gpio_config_example
*CAP
1 gpio_dm1[30] 0.00938558
2 *874:gpio_dm1[30] 0.00715865
3 *288:9 0.084272
4 *288:7 0.0820451
5 gpio_dm1[30] *772:17 0
6 *288:7 *344:17 7.51664e-05
7 *288:7 *532:17 1.69644e-05
8 *288:9 *382:9 0.00367035
9 *288:9 *383:9 0.000230129
10 *288:9 *396:17 0.00344429
11 gpio_analog_en[30] gpio_dm1[30] 0
12 gpio_dm0[30] gpio_dm1[30] 0
13 *150:9 *288:9 0
14 *152:17 *288:9 0.0843875
15 *201:7 *288:7 0
16 *201:9 *288:9 0.139109
17 *220:17 *288:9 0.00172215
18 *266:9 *288:7 0
19 *272:9 *288:9 0.00172215
*RES
1 *874:gpio_dm1[30] *288:7 24.3427 
2 *288:7 *288:9 384.791 
3 *288:9 gpio_dm1[30] 30.0929 
*END

*D_NET *289 0.284329
*CONN
*P gpio_dm1[31] O
*I *874:gpio_dm1[31] O *D counter_gpio_config_example
*CAP
1 gpio_dm1[31] 0.0070521
2 *874:gpio_dm1[31] 0.00913967
3 *289:9 0.0729148
4 *289:7 0.0750024
5 gpio_dm1[31] *773:17 0
6 *289:7 *366:7 0.00118365
7 *289:7 *402:7 0
8 *289:7 *431:7 0.00027451
9 *289:9 *336:9 0
10 *289:9 *366:9 0.00297994
11 *289:9 *373:17 0.006894
12 *289:9 *413:17 0.000287282
13 *289:9 *810:21 0.000104065
14 *113:17 gpio_dm1[31] 0
15 *157:17 *289:9 0.0616556
16 *159:9 *289:9 0
17 *242:9 *289:9 0
18 *248:9 *289:9 0.0453514
19 *280:9 *289:9 0.00148997
*RES
1 *874:gpio_dm1[31] *289:7 29.4947 
2 *289:7 *289:9 312.566 
3 *289:9 gpio_dm1[31] 24.366 
*END

*D_NET *290 0.288285
*CONN
*P gpio_dm1[32] O
*I *874:gpio_dm1[32] O *D counter_gpio_config_example
*CAP
1 gpio_dm1[32] 0.000619342
2 *874:gpio_dm1[32] 0.000871863
3 *290:21 0.0181088
4 *290:19 0.0174895
5 *290:17 0.0444
6 *290:15 0.0444
7 *290:13 0.00747565
8 *290:11 0.00834751
9 *290:11 *318:7 4.03797e-05
10 *290:11 *318:9 0.000123786
11 *290:13 *335:13 0.000529275
12 *290:13 *337:13 0.0139718
13 *290:13 *381:13 0.0246827
14 *290:13 *556:13 0.000151253
15 *290:13 *557:13 0.00107204
16 *290:17 *322:13 0.0506161
17 *290:17 *360:13 0
18 *290:17 *411:13 0
19 *290:17 *543:17 0.00428744
20 *290:17 *553:18 0
21 *290:17 *699:9 0.00524974
22 *290:17 *751:11 0.000191664
23 *290:21 *553:22 0.0455332
24 gpio_analog_en[32] gpio_dm1[32] 0
25 *98:11 *290:11 0.000122517
26 *113:13 *290:13 0
*RES
1 *874:gpio_dm1[32] *290:11 10.3931 
2 *290:11 *290:13 380.459 
3 *290:13 *290:15 8 
4 *290:15 *290:17 150.323 
5 *290:17 *290:19 8 
6 *290:19 *290:21 586.815 
7 *290:21 gpio_dm1[32] 9.47933 
*END

*D_NET *291 0.247076
*CONN
*P gpio_dm1[33] O
*I *874:gpio_dm1[33] O *D counter_gpio_config_example
*CAP
1 gpio_dm1[33] 0.00744678
2 *874:gpio_dm1[33] 0.00721072
3 *291:9 0.0678366
4 *291:7 0.0676006
5 gpio_dm1[33] *373:15 0.00038743
6 gpio_dm1[33] *467:15 0.000539352
7 gpio_dm1[33] *775:19 0
8 *291:7 *328:7 0
9 *291:7 *424:7 0.00128741
10 *291:9 *307:9 0.0322834
11 *291:9 *354:13 0.00249067
12 gpio_analog_en[33] gpio_dm1[33] 0
13 gpio_dm0[33] gpio_dm1[33] 0
14 *129:7 *291:7 3.60704e-05
15 *163:9 *291:9 0
16 *242:9 *291:9 0.0599574
*RES
1 *874:gpio_dm1[33] *291:7 28.1208 
2 *291:7 *291:9 237.294 
3 *291:9 gpio_dm1[33] 26.1207 
*END

*D_NET *292 0.179791
*CONN
*P gpio_dm1[34] O
*I *874:gpio_dm1[34] O *D counter_gpio_config_example
*CAP
1 gpio_dm1[34] 5.56939e-05
2 *874:gpio_dm1[34] 0.00111051
3 *292:17 0.0581838
4 *292:15 0.0581281
5 *292:13 0.00852281
6 *292:11 0.00963332
7 *292:11 *540:11 0.000163756
8 *292:13 *294:13 0.00104463
9 *292:13 *380:13 0.00530384
10 *292:13 *557:13 0
11 *292:17 *748:9 0
12 *292:17 *776:9 0
13 gpio_analog_en[34] *292:17 0
14 *113:13 *292:13 0.0201607
15 *146:13 *292:13 0.0172514
16 *187:11 *292:11 0.00023239
*RES
1 *874:gpio_dm1[34] *292:11 11.1659 
2 *292:11 *292:13 393.841 
3 *292:13 *292:15 8 
4 *292:15 *292:17 152.141 
5 *292:17 gpio_dm1[34] 0.213733 
*END

*D_NET *293 0.267572
*CONN
*P gpio_dm1[35] O
*I *874:gpio_dm1[35] O *D counter_gpio_config_example
*CAP
1 gpio_dm1[35] 0.000655371
2 *874:gpio_dm1[35] 0.000964256
3 *293:21 0.00246224
4 *293:19 0.00180687
5 *293:17 0.0247157
6 *293:15 0.0247157
7 *293:13 0.00376033
8 *293:11 0.00472458
9 *293:11 *368:33 0.000188724
10 *293:13 *381:13 0.0195205
11 *293:13 *556:13 0.000118027
12 *293:13 *557:13 0.019414
13 *293:17 *337:17 0.0778887
14 *293:17 *338:17 0.0774211
15 *293:17 *557:17 8.49974e-05
16 *293:17 *829:16 0.00134729
17 *293:21 *427:21 0.00465076
18 gpio_analog_en[35] gpio_dm1[35] 0
19 *94:11 *293:11 0.000148681
20 *113:13 *293:13 0
21 *117:17 *293:17 0.000192269
22 *205:11 *293:11 0.000120196
23 *215:31 *293:17 0.00267163
*RES
1 *874:gpio_dm1[35] *293:11 10.5648 
2 *293:11 *293:13 252.279 
3 *293:13 *293:15 8 
4 *293:15 *293:17 150.323 
5 *293:17 *293:19 8 
6 *293:19 *293:21 60.0093 
7 *293:21 gpio_dm1[35] 9.27307 
*END

*D_NET *294 0.171862
*CONN
*P gpio_dm1[36] O
*I *874:gpio_dm1[36] O *D counter_gpio_config_example
*CAP
1 gpio_dm1[36] 0.00338498
2 *874:gpio_dm1[36] 0.00117093
3 *294:31 0.0695531
4 *294:13 0.0684168
5 *294:11 0.00341955
6 gpio_dm1[36] gpio_slow_sel[36] 0.000654197
7 gpio_dm1[36] *424:33 5.42193e-05
8 *294:11 *398:11 2.55724e-05
9 *294:13 *557:13 0
10 *294:31 *319:9 0.000885288
11 *294:31 *368:33 2.50324e-05
12 *294:31 *416:23 0
13 *294:31 *424:33 5.06299e-05
14 *294:31 *550:9 0.000145691
15 *122:77 *294:31 0.000142783
16 *122:177 *294:31 0.000285566
17 *146:13 *294:13 0.00216363
18 *160:17 *294:31 2.93912e-05
19 *203:11 *294:31 0.000279527
20 *250:26 gpio_dm1[36] 0.00205757
21 *250:26 *294:31 0.0178148
22 *253:11 *294:11 0.00025782
23 *292:13 *294:13 0.00104463
*RES
1 *874:gpio_dm1[36] *294:11 11.08 
2 *294:11 *294:13 68.4607 
3 *294:13 *294:31 45.3427 
4 *294:31 gpio_dm1[36] 9.3492 
*END

*D_NET *295 0.166138
*CONN
*P gpio_dm1[37] O
*I *874:gpio_dm1[37] O *D counter_gpio_config_example
*CAP
1 gpio_dm1[37] 0.000849469
2 *874:gpio_dm1[37] 0.0676595
3 *295:24 0.0120168
4 *295:20 0.0788268
5 gpio_dm1[37] *726:21 0.00155422
6 *295:20 *339:29 0.00201661
7 *295:20 *550:7 0.000203107
8 *295:20 *571:12 0.000875177
9 *295:24 *395:7 0.000862675
10 *295:24 *823:16 0
11 gpio_analog_pol[37] *295:24 0
12 *120:10 *295:20 4.0167e-05
13 *208:26 *295:20 5.4605e-05
14 *252:40 *295:20 0.000198807
15 *259:17 *295:20 0.000979681
*RES
1 *874:gpio_dm1[37] *295:20 49.1307 
2 *295:20 *295:24 34.2883 
3 *295:24 gpio_dm1[37] 28.7049 
*END

*D_NET *296 0.194358
*CONN
*P gpio_dm1[38] O
*I *874:gpio_dm1[38] O *D counter_gpio_config_example
*CAP
1 gpio_dm1[38] 0.000234947
2 *874:gpio_dm1[38] 0.000219138
3 *296:13 0.0116644
4 *296:11 0.0114294
5 *296:9 0.00426146
6 *296:7 0.0044806
7 *296:9 *340:9 0.0145771
8 *296:9 *340:13 0.00323781
9 *296:9 *342:13 0.000285894
10 *296:9 *344:19 0.0086018
11 *296:9 *389:9 0.00418447
12 *296:13 gpio_slow_sel[38] 0.0138793
13 *296:13 *300:13 0.0289278
14 *125:19 *296:9 0
15 *125:21 *296:13 0.0235641
16 *164:13 *296:13 0.0527988
17 *168:19 *296:9 0
18 *168:21 *296:13 0.00641534
19 *212:13 *296:13 0.00553623
20 *223:7 *296:7 2.9627e-05
21 *241:7 *296:7 2.9627e-05
*RES
1 *874:gpio_dm1[38] *296:7 8.58613 
2 *296:7 *296:9 269.182 
3 *296:9 *296:11 8 
4 *296:11 *296:13 101.722 
5 *296:13 gpio_dm1[38] 13.1268 
*END

*D_NET *297 0.151122
*CONN
*P gpio_dm1[39] O
*I *874:gpio_dm1[39] O *D counter_gpio_config_example
*CAP
1 gpio_dm1[39] 0.00016839
2 *874:gpio_dm1[39] 0.000234953
3 *297:13 0.0433297
4 *297:11 0.0431613
5 *297:9 0.0319336
6 *297:7 0.0321685
7 *297:7 *381:11 3.43522e-05
8 *297:9 *381:11 9.12972e-05
9 *89:9 *297:9 0
10 *269:7 *297:7 0
11 *269:9 *297:9 0
*RES
1 *874:gpio_dm1[39] *297:7 0.449004 
2 *297:7 *297:9 90.0013 
3 *297:9 *297:11 8 
4 *297:11 *297:13 976.492 
5 *297:13 gpio_dm1[39] 4.07036 
*END

*D_NET *298 0.517342
*CONN
*P gpio_dm1[3] O
*I *874:gpio_dm1[3] O *D counter_gpio_config_example
*CAP
1 gpio_dm1[3] 0.000123733
2 *874:gpio_dm1[3] 0.091794
3 *298:22 0.132704
4 *298:20 0.13258
5 *298:18 0.0267502
6 *298:16 0.118544
7 *298:16 *375:13 0.00675761
8 *298:16 *419:11 0.000844367
9 *298:16 *429:9 0.000110022
10 *298:16 *540:17 0.00337073
11 *298:16 *664:16 2.93823e-05
12 *298:16 *665:14 0.000559837
13 *298:22 gpio_slow_sel[3] 0
14 *129:9 *298:16 3.35762e-05
15 *131:9 *298:16 0.00186551
16 *232:16 *298:16 0.00074928
17 *254:17 *298:22 0
18 *281:11 *298:16 0.00052576
*RES
1 *874:gpio_dm1[3] *298:16 33.0959 
2 *298:16 *298:18 79.8971 
3 *298:18 *298:20 8 
4 *298:20 *298:22 389.431 
5 *298:22 gpio_dm1[3] 0.49 
*END

*D_NET *299 0.17816
*CONN
*P gpio_dm1[40] O
*I *874:gpio_dm1[40] O *D counter_gpio_config_example
*CAP
1 gpio_dm1[40] 8.26955e-05
2 *874:gpio_dm1[40] 0.000195254
3 *299:13 0.0398639
4 *299:11 0.0397812
5 *299:9 0.0487993
6 *299:7 0.0489946
7 *140:9 *299:9 0
8 *245:7 *299:7 3.19664e-05
9 *245:7 *299:9 1.32238e-06
10 *282:11 *299:7 3.64069e-05
11 *282:11 *299:9 0.000373249
*RES
1 *874:gpio_dm1[40] *299:7 0.662667 
2 *299:7 *299:9 141.521 
3 *299:9 *299:11 8 
4 *299:11 *299:13 902.542 
5 *299:13 gpio_dm1[40] 1.99893 
*END

*D_NET *300 0.436431
*CONN
*P gpio_dm1[41] O
*I *874:gpio_dm1[41] O *D counter_gpio_config_example
*CAP
1 gpio_dm1[41] 0.000233932
2 *874:gpio_dm1[41] 0.00118985
3 *300:21 0.0226804
4 *300:19 0.0226066
5 *300:13 0.00478218
6 *300:11 0.00462203
7 *300:9 0.0234266
8 *300:7 0.0246164
9 *300:7 *548:7 0.000200521
10 *300:9 *359:9 0.0118355
11 *300:9 *663:9 0.00978664
12 *300:21 *340:17 0.000280429
13 *300:21 *344:35 0.130316
14 *300:21 *433:22 0
15 *300:21 *739:9 0.0127915
16 *300:21 *828:13 0.00336322
17 *123:13 *300:13 0.000248734
18 *123:21 *300:21 0.100275
19 *124:21 gpio_dm1[41] 0
20 *125:19 *300:13 7.86635e-05
21 *164:13 *300:13 0.00031657
22 *164:13 *300:21 0.00412952
23 *212:13 *300:13 0.029654
24 *266:9 *300:7 6.91339e-05
25 *296:13 *300:13 0.0289278
*RES
1 *874:gpio_dm1[41] *300:7 10.9045 
2 *300:7 *300:9 632.594 
3 *300:9 *300:11 8 
4 *300:11 *300:13 56.8139 
5 *300:13 *300:19 25.0818 
6 *300:19 *300:21 1394.18 
7 *300:21 gpio_dm1[41] 19.4018 
*END

*D_NET *301 0.456733
*CONN
*P gpio_dm1[42] O
*I *874:gpio_dm1[42] O *D counter_gpio_config_example
*CAP
1 gpio_dm1[42] 0.000206953
2 *874:gpio_dm1[42] 0.00011867
3 *301:17 0.00778067
4 *301:15 0.00757372
5 *301:13 0.0882892
6 *301:11 0.0882892
7 *301:9 0.016642
8 *301:7 0.0167606
9 *301:7 *552:7 2.42612e-05
10 *301:9 *340:9 0.0108407
11 *301:9 *342:13 0.000485682
12 *301:9 *342:19 2.52012e-05
13 *301:9 *344:17 0.000631061
14 *301:9 *389:9 0.00223746
15 *301:9 *404:11 0.00287065
16 *301:9 *428:11 0
17 *301:9 *560:11 0
18 *301:9 *664:18 0
19 *301:13 *302:13 0
20 *301:13 *697:9 0.16239
21 *129:9 *301:9 0.000282337
22 *132:7 *301:7 2.28029e-05
23 *135:11 *301:9 0.0154263
24 *141:9 *301:9 0.0358358
*RES
1 *874:gpio_dm1[42] *301:7 8.4144 
2 *301:7 *301:9 688.936 
3 *301:9 *301:11 8 
4 *301:11 *301:13 355.802 
5 *301:13 *301:15 8 
6 *301:15 *301:17 167.972 
7 *301:17 gpio_dm1[42] 5.0025 
*END

*D_NET *302 0.515554
*CONN
*P gpio_dm1[43] O
*I *874:gpio_dm1[43] O *D counter_gpio_config_example
*CAP
1 gpio_dm1[43] 0.000121258
2 *874:gpio_dm1[43] 0.000375605
3 *302:17 0.00792076
4 *302:15 0.0077995
5 *302:13 0.101388
6 *302:11 0.101388
7 *302:9 0.00897069
8 *302:7 0.00934629
9 *302:7 *440:7 5.29169e-05
10 *302:9 *342:13 0.000212846
11 *302:9 *344:19 0.0347762
12 *302:9 *347:9 0.000282337
13 *302:9 *384:9 0
14 *302:9 *391:9 0.00127194
15 *302:9 *434:9 0.0423343
16 *302:9 *532:19 0.00173166
17 *302:13 *434:13 0
18 *302:13 *697:9 0
19 *302:13 *698:9 0.184999
20 *143:9 *302:9 0.012319
21 *147:9 *302:9 0.000223698
22 *174:7 *302:7 4.05943e-05
23 *225:9 *302:9 0
24 *301:13 *302:13 0
*RES
1 *874:gpio_dm1[43] *302:7 8.84373 
2 *302:7 *302:9 611.465 
3 *302:9 *302:11 8 
4 *302:11 *302:13 407.751 
5 *302:13 *302:15 8 
6 *302:15 *302:17 175.015 
7 *302:17 gpio_dm1[43] 2.93107 
*END

*D_NET *303 0.529757
*CONN
*P gpio_dm1[4] O
*I *874:gpio_dm1[4] O *D counter_gpio_config_example
*CAP
1 gpio_dm1[4] 0.00904808
2 *874:gpio_dm1[4] 0.000179419
3 *303:13 0.0396994
4 *303:11 0.0306513
5 *303:9 0.0853837
6 *303:7 0.0855631
7 *303:7 *422:11 1.73779e-05
8 *303:9 *672:17 0.0462994
9 *303:13 *351:13 0.00166132
10 *303:13 *437:13 0
11 gpio_analog_en[4] gpio_dm1[4] 0
12 *134:13 *303:13 0.000765061
13 *137:13 *303:7 7.71075e-05
14 *137:13 *303:9 0.213139
15 *171:19 gpio_dm1[4] 0
16 *210:14 *303:13 0.0170417
17 *278:11 *303:7 3.60172e-05
18 *278:11 *303:9 0.000194843
*RES
1 *874:gpio_dm1[4] *303:7 0.662667 
2 *303:7 *303:9 419.257 
3 *303:9 *303:11 8 
4 *303:11 *303:13 115.565 
5 *303:13 gpio_dm1[4] 30.3543 
*END

*D_NET *304 0.536242
*CONN
*P gpio_dm1[5] O
*I *874:gpio_dm1[5] O *D counter_gpio_config_example
*CAP
1 gpio_dm1[5] 0.000182246
2 *874:gpio_dm1[5] 0.00555041
3 *304:13 0.19814
4 *304:11 0.197958
5 *304:9 0.0172867
6 *304:7 0.0228371
7 *304:9 *374:9 0.0141359
8 *304:9 *440:9 0.054684
9 *304:9 *822:10 0
10 *107:7 *304:7 0.000903763
11 *133:7 *304:7 0.000336094
12 *178:17 *304:9 0.00281948
13 *193:9 *304:9 0.0214073
14 *206:7 *304:7 0
15 *260:13 *304:13 0
*RES
1 *874:gpio_dm1[5] *304:7 21.3803 
2 *304:7 *304:9 767.816 
3 *304:9 *304:11 8 
4 *304:11 *304:13 566.961 
5 *304:13 gpio_dm1[5] 0.714 
*END

*D_NET *305 0.542734
*CONN
*P gpio_dm1[6] O
*I *874:gpio_dm1[6] O *D counter_gpio_config_example
*CAP
1 gpio_dm1[6] 0.000127503
2 *874:gpio_dm1[6] 0.0051548
3 *305:13 0.198112
4 *305:11 0.197984
5 *305:9 0.0293518
6 *305:7 0.0345066
7 *305:7 *309:7 0.000364065
8 *305:7 *314:7 0.000664282
9 *305:13 gpio_slow_sel[6] 0
10 *241:9 *305:9 0.0764688
*RES
1 *874:gpio_dm1[6] *305:7 20.0923 
2 *305:7 *305:9 985.441 
3 *305:9 *305:11 8 
4 *305:11 *305:13 565.673 
5 *305:13 gpio_dm1[6] 0.504933 
*END

*D_NET *306 0.695901
*CONN
*P gpio_dm1[7] O
*I *874:gpio_dm1[7] O *D counter_gpio_config_example
*CAP
1 gpio_dm1[7] 0.00380645
2 *874:gpio_dm1[7] 0.00585594
3 *306:13 0.198194
4 *306:11 0.194388
5 *306:9 0.0680946
6 *306:7 0.0739505
7 *306:7 *307:7 0
8 *306:9 *382:9 0
9 *306:9 *393:9 0.0123916
10 *130:17 *306:13 0
11 *196:7 *306:7 0.00116458
12 *204:7 *306:7 0.000544011
13 *219:9 *306:9 0.137511
*RES
1 *874:gpio_dm1[7] *306:7 24.9867 
2 *306:7 *306:9 2206.67 
3 *306:9 *306:11 8 
4 *306:11 *306:13 562.955 
5 *306:13 gpio_dm1[7] 8.72947 
*END

*D_NET *307 0.801012
*CONN
*P gpio_dm1[8] O
*I *874:gpio_dm1[8] O *D counter_gpio_config_example
*CAP
1 gpio_dm1[8] 0.000174378
2 *874:gpio_dm1[8] 0.00782548
3 *307:21 0.201034
4 *307:19 0.200859
5 *307:17 0.0471144
6 *307:15 0.0473931
7 *307:9 0.0177994
8 *307:7 0.0253462
9 *307:7 *354:13 0.000106129
10 *307:17 *354:17 0.156334
11 *307:17 *373:9 0.0629968
12 *307:21 *791:17 0
13 *161:9 *307:9 0
14 *163:9 *307:9 0
15 *204:7 *307:7 0.000549125
16 *206:9 *307:9 0.00112727
17 *242:7 *307:15 6.99005e-05
18 *248:9 *307:9 0
19 *263:17 *307:21 0
20 *284:7 *307:7 0
21 *291:9 *307:9 0.0322834
22 *306:7 *307:7 0
*RES
1 *874:gpio_dm1[8] *307:7 28.2925 
2 *307:7 *307:9 78.8816 
3 *307:9 *307:15 16.7 
4 *307:15 *307:17 2012.29 
5 *307:17 *307:19 8 
6 *307:19 *307:21 573.229 
7 *307:21 gpio_dm1[8] 0.6692 
*END

*D_NET *308 0.5837
*CONN
*P gpio_dm1[9] O
*I *874:gpio_dm1[9] O *D counter_gpio_config_example
*CAP
1 gpio_dm1[9] 3.81832e-05
2 *874:gpio_dm1[9] 0.000246439
3 *308:17 0.131371
4 *308:15 0.131333
5 *308:13 0.114109
6 *308:11 0.114109
7 *308:9 0.0216888
8 *308:7 0.0219352
9 *308:7 *388:11 3.14433e-05
10 *308:9 *388:11 0.00127388
11 *308:9 *539:9 0
12 *308:13 *363:13 0.0474106
13 *113:11 *308:7 2.82839e-05
14 *113:11 *308:9 0.00012599
15 *264:13 *308:17 0
16 *269:13 *308:13 0
*RES
1 *874:gpio_dm1[9] *308:7 0.662667 
2 *308:7 *308:9 60.8496 
3 *308:9 *308:11 8 
4 *308:11 *308:13 346.33 
5 *308:13 *308:15 8 
6 *308:15 *308:17 380.673 
7 *308:17 gpio_dm1[9] 0.146533 
*END

*D_NET *309 0.836382
*CONN
*P gpio_dm2[0] O
*I *874:gpio_dm2[0] O *D counter_gpio_config_example
*CAP
1 gpio_dm2[0] 0.00147584
2 *874:gpio_dm2[0] 0.00309034
3 *309:17 0.00380093
4 *309:15 0.00232509
5 *309:13 0.126212
6 *309:11 0.126212
7 *309:9 0.0231781
8 *309:7 0.0262684
9 gpio_dm2[0] gpio_holdover[0] 0
10 *309:7 *532:17 0.000105861
11 *309:9 *325:9 0
12 *309:9 *377:9 0.000121281
13 *309:9 *471:11 0.00132866
14 *309:13 *874:gpio_in[3] 0.00309399
15 *309:13 *342:13 5.12311e-05
16 *309:13 *342:21 0.045406
17 *309:13 *460:19 0.000178777
18 *309:13 *461:19 0.00035405
19 *309:13 *471:15 0.0252707
20 *309:13 *482:15 0.0456416
21 *309:13 *484:15 0.0676076
22 *309:13 *683:9 0
23 *309:17 *529:17 0
24 gpio_analog_sel[0] gpio_dm2[0] 0.00209331
25 *91:9 *309:9 0.0242805
26 *93:9 *309:9 0
27 *115:9 *309:9 0.00197398
28 *123:9 *309:9 0.00239994
29 *133:9 *309:9 0
30 *133:13 *309:13 0.287574
31 *133:17 *309:17 0.00410595
32 *155:19 *309:13 0.000290427
33 *155:25 *309:17 0.00489089
34 *204:9 *309:9 0.00661674
35 *271:7 *309:7 6.95932e-05
36 *305:7 *309:7 0.000364065
*RES
1 *874:gpio_dm2[0] *309:7 14.8973 
2 *309:7 *309:9 91.1941 
3 *309:9 *309:11 8 
4 *309:11 *309:13 556.343 
5 *309:13 *309:15 8 
6 *309:15 *309:17 120.578 
7 *309:17 gpio_dm2[0] 12.2663 
*END

*D_NET *310 0.868005
*CONN
*P gpio_dm2[10] O
*I *874:gpio_dm2[10] O *D counter_gpio_config_example
*CAP
1 gpio_dm2[10] 9.07372e-05
2 *874:gpio_dm2[10] 0.0051538
3 *310:17 0.100242
4 *310:15 0.100152
5 *310:13 0.12341
6 *310:11 0.128564
7 *310:11 *408:17 0
8 *310:13 *408:13 0
9 *310:17 gpio_holdover[10] 0.00038235
10 *310:17 *354:21 0.22453
11 *310:17 *706:17 0
12 *94:13 *310:13 0.173075
13 *121:13 *310:13 0.0026364
14 *130:11 *310:11 0.000975899
15 *137:11 *310:11 2.20866e-05
16 *213:13 *310:13 0.00877139
17 *263:13 *310:13 0
18 *278:11 *310:11 0
*RES
1 *874:gpio_dm2[10] *310:11 23.316 
2 *310:11 *310:13 498.777 
3 *310:13 *310:15 8 
4 *310:15 *310:17 426.869 
5 *310:17 gpio_dm2[10] 0.359333 
*END

*D_NET *311 1.07194
*CONN
*P gpio_dm2[11] O
*I *874:gpio_dm2[11] O *D counter_gpio_config_example
*CAP
1 gpio_dm2[11] 0.00366209
2 *874:gpio_dm2[11] 0.00124672
3 *311:13 0.136707
4 *311:11 0.133045
5 *311:9 0.0498026
6 *311:7 0.0510493
7 gpio_dm2[11] gpio_holdover[11] 0.000243017
8 gpio_dm2[11] *355:17 0.00039948
9 *311:7 *317:7 0.000151917
10 *311:9 *352:17 0.180714
11 *311:9 *359:9 0.0045189
12 *311:9 *663:9 0.225997
13 *311:13 *355:17 0
14 *115:7 *311:7 0.000153375
15 *179:21 gpio_dm2[11] 0
16 *179:21 *311:13 0.284245
*RES
1 *874:gpio_dm2[11] *311:7 10.9045 
2 *311:7 *311:9 2911.66 
3 *311:9 *311:11 8 
4 *311:11 *311:13 548.873 
5 *311:13 gpio_dm2[11] 8.83027 
*END

*D_NET *312 0.745359
*CONN
*P gpio_dm2[12] O
*I *874:gpio_dm2[12] O *D counter_gpio_config_example
*CAP
1 gpio_dm2[12] 0.00311187
2 *874:gpio_dm2[12] 0.000163303
3 *312:17 0.0707954
4 *312:15 0.0676835
5 *312:13 0.173336
6 *312:11 0.173336
7 *312:9 0.0423066
8 *312:7 0.0424699
9 gpio_dm2[12] gpio_holdover[12] 0
10 *312:7 *376:11 5.083e-05
11 *312:7 *436:11 4.4107e-05
12 *312:9 *376:11 0.000653336
13 *312:9 *436:11 0.00249011
14 *312:9 *683:17 0.0190538
15 *312:13 *394:13 0
16 *312:17 gpio_holdover[12] 0
17 *175:9 *312:9 0
18 *180:13 gpio_dm2[12] 0.00183984
19 *180:13 *312:17 0.148025
*RES
1 *874:gpio_dm2[12] *312:7 0.662667 
2 *312:7 *312:9 148.434 
3 *312:9 *312:11 8 
4 *312:11 *312:13 539.396 
5 *312:13 *312:15 8 
6 *312:15 *312:17 285.477 
7 *312:17 gpio_dm2[12] 8.3076 
*END

*D_NET *313 0.683554
*CONN
*P gpio_dm2[13] O
*I *874:gpio_dm2[13] O *D counter_gpio_config_example
*CAP
1 gpio_dm2[13] 0.0122179
2 *874:gpio_dm2[13] 0.000241168
3 *313:20 1.53193e-05
4 *313:15 0.0122026
5 *313:13 0.180932
6 *313:11 0.180932
7 *313:9 0.134987
8 *313:7 0.135228
9 gpio_dm2[13] gpio_holdover[13] 0.000925298
10 gpio_dm2[13] gpio_out[13] 0
11 gpio_dm2[13] *357:25 0.0223137
12 *313:7 *427:11 3.3537e-05
13 *313:9 *427:11 2.61535e-05
14 *313:9 *531:11 0
15 *313:9 *533:19 0
16 *313:13 *711:21 0
17 *267:7 *313:7 2.82839e-05
18 *267:9 *313:7 3.1594e-06
19 *267:9 *313:9 0.00346668
*RES
1 *874:gpio_dm2[13] *313:7 0.662667 
2 *313:7 *313:9 394.527 
3 *313:9 *313:11 8 
4 *313:11 *313:13 566.686 
5 *313:13 *313:15 8 
6 *313:15 gpio_dm2[13] 46.9952 
7 gpio_dm2[13] *313:20 0.0606667 
*END

*D_NET *314 1.16139
*CONN
*P gpio_dm2[14] O
*I *874:gpio_dm2[14] O *D counter_gpio_config_example
*CAP
1 gpio_dm2[14] 0.00180834
2 *874:gpio_dm2[14] 0.0059654
3 *314:13 0.149404
4 *314:11 0.147596
5 *314:9 0.110413
6 *314:7 0.116378
7 gpio_dm2[14] *358:17 0.000242342
8 *314:7 *373:7 0.000816217
9 *314:9 *469:11 0
10 *314:13 *545:30 0.0190797
11 gpio_analog_sel[24] *314:13 0
12 *149:25 *314:13 0
13 *182:17 gpio_dm2[14] 0.00038235
14 *182:17 *314:13 0.206683
15 *191:9 *314:9 0.316294
16 *193:17 *314:9 0.027153
17 *196:9 *314:9 0.0380855
18 *247:9 *314:9 0.0204268
19 *305:7 *314:7 0.000664282
*RES
1 *874:gpio_dm2[14] *314:7 22.5824 
2 *314:7 *314:9 4026.55 
3 *314:9 *314:11 8 
4 *314:11 *314:13 564.372 
5 *314:13 gpio_dm2[14] 23.9402 
*END

*D_NET *315 0.615406
*CONN
*P gpio_dm2[15] O
*I *874:gpio_dm2[15] O *D counter_gpio_config_example
*CAP
1 gpio_dm2[15] 0.00453198
2 *874:gpio_dm2[15] 0.000208173
3 *315:13 0.173098
4 *315:11 0.168566
5 *315:9 0.130009
6 *315:7 0.130217
7 gpio_dm2[15] gpio_holdover[15] 0
8 gpio_dm2[15] *359:17 0
9 *315:7 *341:7 3.86115e-05
10 *315:9 gpio_slow_sel[3] 0
11 *315:9 *319:9 0
12 *315:9 *341:7 5.5178e-06
13 *315:9 *341:9 0.00828483
14 *315:9 *474:7 0
15 gpio_analog_sel[15] gpio_dm2[15] 0
16 *203:11 *315:7 4.74136e-05
17 *203:11 *315:9 0.000399547
*RES
1 *874:gpio_dm2[15] *315:7 0.449004 
2 *315:7 *315:9 389.418 
3 *315:9 *315:11 8 
4 *315:11 *315:13 3911.75 
5 *315:13 gpio_dm2[15] 44.2929 
*END

*D_NET *316 0.984031
*CONN
*P gpio_dm2[16] O
*I *874:gpio_dm2[16] O *D counter_gpio_config_example
*CAP
1 gpio_dm2[16] 0.00102946
2 *874:gpio_dm2[16] 0.00265439
3 *316:15 0.0689989
4 *316:13 0.0679694
5 *316:11 0.115113
6 *316:9 0.117767
7 gpio_dm2[16] gpio_holdover[16] 0
8 *316:9 *350:13 0.00169827
9 *316:9 *379:11 0
10 *316:9 *402:7 0
11 *316:11 *369:9 0.308553
12 *316:15 *361:13 0.0356213
13 gpio_analog_sel[16] gpio_dm2[16] 0
14 *96:13 *316:15 0.219508
15 *99:9 *316:11 0
16 *105:17 *316:11 0.015306
17 *184:21 *316:15 0
18 *244:9 *316:11 0.0298127
*RES
1 *874:gpio_dm2[16] *316:9 14.2645 
2 *316:9 *316:11 4099.62 
3 *316:11 *316:13 15 
4 *316:13 *316:15 2348.94 
5 *316:15 gpio_dm2[16] 38.49 
*END

*D_NET *317 0.706746
*CONN
*P gpio_dm2[17] O
*I *874:gpio_dm2[17] O *D counter_gpio_config_example
*CAP
1 gpio_dm2[17] 0.161013
2 *874:gpio_dm2[17] 0.00150936
3 *317:15 0.161013
4 *317:13 0.131561
5 *317:11 0.131561
6 *317:9 0.0086702
7 *317:7 0.0101796
8 gpio_dm2[17] gpio_holdover[17] 0
9 *317:7 *322:7 0.000178732
10 *317:9 *322:9 0.0479781
11 *317:9 *323:9 0.00294859
12 *317:9 *350:15 0.00542539
13 *317:9 *535:9 0.0440873
14 *317:13 *688:19 0.000469753
15 gpio_analog_sel[17] gpio_dm2[17] 0
16 *115:7 *317:7 0
17 *311:7 *317:7 0.000151917
*RES
1 *874:gpio_dm2[17] *317:7 11.4197 
2 *317:7 *317:9 637.524 
3 *317:9 *317:11 8 
4 *317:11 *317:13 372.717 
5 *317:13 *317:15 8 
6 *317:15 gpio_dm2[17] 3604.61 
*END

*D_NET *318 0.468109
*CONN
*P gpio_dm2[18] O
*I *874:gpio_dm2[18] O *D counter_gpio_config_example
*CAP
1 gpio_dm2[18] 0.00370051
2 *874:gpio_dm2[18] 0.000194567
3 *318:13 0.176078
4 *318:11 0.172378
5 *318:9 0.0576233
6 *318:7 0.0578179
7 gpio_dm2[18] gpio_holdover[18] 0
8 gpio_dm2[18] gpio_out[18] 0
9 *318:7 *556:11 4.58975e-05
10 *318:9 *372:11 0
11 *318:9 *556:11 0.000107162
12 gpio_analog_sel[18] gpio_dm2[18] 0
13 *98:11 *318:9 0
14 *274:13 gpio_dm2[18] 0
15 *290:11 *318:7 4.03797e-05
16 *290:11 *318:9 0.000123786
*RES
1 *874:gpio_dm2[18] *318:7 0.662667 
2 *318:7 *318:9 165.306 
3 *318:9 *318:11 8 
4 *318:11 *318:13 3992.74 
5 *318:13 gpio_dm2[18] 41.8756 
*END

*D_NET *319 0.423826
*CONN
*P gpio_dm2[19] O
*I *874:gpio_dm2[19] O *D counter_gpio_config_example
*CAP
1 gpio_dm2[19] 0.00104442
2 *874:gpio_dm2[19] 0.000287981
3 *319:19 0.00412083
4 *319:13 0.172062
5 *319:11 0.168986
6 *319:9 0.0170692
7 *319:7 0.0173572
8 gpio_dm2[19] gpio_holdover[19] 0
9 *319:9 *474:7 0.03388
10 gpio_analog_sel[19] gpio_dm2[19] 0
11 gpio_dm1[19] *319:19 0
12 *183:21 *319:19 0.000475779
13 *184:21 *319:19 0.000597192
14 *203:11 *319:7 3.41368e-05
15 *203:11 *319:9 0.000426953
16 *254:11 *319:7 4.41293e-05
17 *254:11 *319:9 0
18 *272:21 *319:19 0.000487324
19 *274:13 *319:19 0.00606709
20 *294:31 *319:9 0.000885288
21 *315:9 *319:9 0
*RES
1 *874:gpio_dm2[19] *319:7 0.7896 
2 *319:7 *319:9 67.4184 
3 *319:9 *319:11 8 
4 *319:11 *319:13 3912.45 
5 *319:13 *319:19 27.7339 
6 *319:19 gpio_dm2[19] 22.6096 
*END

*D_NET *320 0.467178
*CONN
*P gpio_dm2[1] O
*I *874:gpio_dm2[1] O *D counter_gpio_config_example
*CAP
1 gpio_dm2[1] 0.00134041
2 *874:gpio_dm2[1] 0.000208173
3 *320:17 0.0845481
4 *320:15 0.0832077
5 *320:13 0.027507
6 *320:11 0.027507
7 *320:9 0.0213214
8 *320:7 0.0215295
9 gpio_dm2[1] *364:17 0.00192523
10 *320:17 *364:17 0.172728
11 *320:17 *429:9 0.00195945
12 *320:17 *716:27 0
13 gpio_analog_sel[1] gpio_dm2[1] 0.000387154
14 *131:9 *320:17 0
15 *155:25 gpio_dm2[1] 0
16 *218:7 *320:7 3.86115e-05
17 *218:7 *320:9 5.5178e-06
18 *218:9 *320:9 0.0065228
19 *222:9 *320:17 0.00987117
20 *226:7 *320:7 2.9754e-05
21 *226:9 *320:7 1.76595e-05
22 *226:9 *320:9 0.0065228
*RES
1 *874:gpio_dm2[1] *320:7 0.449004 
2 *320:7 *320:9 76.3056 
3 *320:9 *320:11 8 
4 *320:11 *320:13 81.928 
5 *320:13 *320:15 8 
6 *320:15 *320:17 361.426 
7 *320:17 gpio_dm2[1] 21.7172 
*END

*D_NET *321 0.345446
*CONN
*P gpio_dm2[20] O
*I *874:gpio_dm2[20] O *D counter_gpio_config_example
*CAP
1 gpio_dm2[20] 9.04367e-05
2 *874:gpio_dm2[20] 0.0124442
3 *321:13 0.160165
4 *321:11 0.172519
5 gpio_dm2[20] gpio_holdover[20] 0
6 *321:11 *338:11 7.03553e-05
7 *321:11 *380:11 0.000156847
8 *321:11 *410:11 0
9 *321:13 gpio_holdover[20] 0
10 *321:13 *567:27 0
11 gpio_analog_sel[20] gpio_dm2[20] 0
12 gpio_analog_sel[20] *321:13 0
13 *134:9 *321:11 0
*RES
1 *874:gpio_dm2[20] *321:11 39.6039 
2 *321:11 *321:13 3712.44 
3 *321:13 gpio_dm2[20] 1.86429 
*END

*D_NET *322 0.562387
*CONN
*P gpio_dm2[21] O
*I *874:gpio_dm2[21] O *D counter_gpio_config_example
*CAP
1 gpio_dm2[21] 9.62404e-05
2 *874:gpio_dm2[21] 0.00161435
3 *322:17 0.162419
4 *322:15 0.162323
5 *322:13 0.0202803
6 *322:11 0.0202803
7 *322:9 0.00892718
8 *322:7 0.0105415
9 gpio_dm2[21] gpio_holdover[21] 0
10 *322:9 *350:15 0.00441849
11 *322:9 *352:9 0.0001646
12 *322:9 *542:9 0.0453727
13 *322:9 *666:17 0
14 *322:13 *360:13 0
15 *322:13 *543:17 0.0231591
16 *322:13 *665:28 0.00401787
17 *322:17 gpio_holdover[21] 0
18 gpio_analog_sel[21] gpio_dm2[21] 0
19 *190:33 *322:17 0
20 *247:7 *322:7 0
21 *290:17 *322:13 0.0506161
22 *317:7 *322:7 0.000178732
23 *317:9 *322:9 0.0479781
*RES
1 *874:gpio_dm2[21] *322:7 11.5056 
2 *322:7 *322:9 613.578 
3 *322:9 *322:11 8 
4 *322:11 *322:13 98.6309 
5 *322:13 *322:15 8 
6 *322:15 *322:17 3623.7 
7 *322:17 gpio_dm2[21] 1.86429 
*END

*D_NET *323 0.500808
*CONN
*P gpio_dm2[22] O
*I *874:gpio_dm2[22] O *D counter_gpio_config_example
*CAP
1 gpio_dm2[22] 0.157176
2 *874:gpio_dm2[22] 0.00128437
3 *323:15 0.157176
4 *323:13 0.014004
5 *323:11 0.014004
6 *323:9 0.010064
7 *323:7 0.0113484
8 gpio_dm2[22] gpio_holdover[22] 0
9 *323:7 *344:17 0.000158812
10 *323:7 *538:7 0.000179001
11 *323:9 *324:9 0.0530227
12 *323:9 *350:15 0.00616383
13 *323:9 *352:9 0.00164196
14 *323:9 *535:9 0.0415003
15 *323:9 *666:17 0
16 *323:13 *542:21 0.000306356
17 *323:13 *553:18 0
18 *323:13 *781:13 0.00127252
19 gpio_analog_sel[22] gpio_dm2[22] 0
20 *104:27 *323:13 0.00245938
21 *142:13 *323:13 0
22 *147:21 *323:13 0.0254053
23 *179:9 *323:7 0.000175134
24 *233:13 *323:13 3.4915e-06
25 *233:21 *323:13 0.000135504
26 *271:13 *323:13 0.000258271
27 *271:21 *323:13 0.000119639
28 *317:9 *323:9 0.00294859
*RES
1 *874:gpio_dm2[22] *323:7 11.248 
2 *323:7 *323:9 678.372 
3 *323:9 *323:11 8 
4 *323:11 *323:13 50.3739 
5 *323:13 *323:15 8 
6 *323:15 gpio_dm2[22] 3637.71 
*END

*D_NET *324 0.566416
*CONN
*P gpio_dm2[23] O
*I *874:gpio_dm2[23] O *D counter_gpio_config_example
*CAP
1 gpio_dm2[23] 0.00230567
2 *874:gpio_dm2[23] 0.00129304
3 *324:17 0.116114
4 *324:15 0.114674
5 *324:9 0.0113008
6 *324:7 0.0117284
7 gpio_dm2[23] gpio_holdover[23] 0
8 *324:7 *538:7 0.000175509
9 *324:9 *359:9 0.0564551
10 *324:9 *535:9 0.00178109
11 *324:15 *406:13 0.000245338
12 *324:15 *537:13 0.000155767
13 *324:17 *368:65 0
14 *324:17 *532:19 0.194804
15 gpio_analog_sel[23] gpio_dm2[23] 0
16 *122:15 *324:7 0.000175509
17 *129:9 *324:17 0.00218652
18 *135:11 *324:17 0
19 *139:9 *324:17 0
20 *192:17 *324:17 0
21 *225:9 *324:17 0
22 *266:17 *324:17 0
23 *323:9 *324:9 0.0530227
*RES
1 *874:gpio_dm2[23] *324:7 11.1621 
2 *324:7 *324:9 729.785 
3 *324:9 *324:15 18.2885 
4 *324:15 *324:17 3544.88 
5 *324:17 gpio_dm2[23] 49.8489 
*END

*D_NET *325 0.721861
*CONN
*P gpio_dm2[24] O
*I *874:gpio_dm2[24] O *D counter_gpio_config_example
*CAP
1 gpio_dm2[24] 0.0114099
2 *874:gpio_dm2[24] 0.00309045
3 *325:9 0.220448
4 *325:7 0.212128
5 gpio_dm2[24] gpio_holdover[24] 0.000175175
6 gpio_dm2[24] *369:15 0
7 *325:9 *470:11 0.000985806
8 *325:9 *821:13 0.00760338
9 gpio_analog_sel[24] gpio_dm2[24] 0
10 *95:9 *325:9 0.0172025
11 *96:9 *325:9 0.00842384
12 *99:7 *325:7 0.000403342
13 *151:9 *325:9 0.0440482
14 *197:9 *325:9 0.171058
15 *204:9 *325:9 0
16 *249:9 *325:9 0.012287
17 *274:9 *325:9 0.00842384
18 *279:7 *325:7 0.000518085
19 *283:17 *325:9 0.00365578
20 *309:9 *325:9 0
*RES
1 *874:gpio_dm2[24] *325:7 16.6147 
2 *325:7 *325:9 782.854 
3 *325:9 gpio_dm2[24] 37.8769 
*END

*D_NET *326 0.595319
*CONN
*P gpio_dm2[25] O
*I *874:gpio_dm2[25] O *D counter_gpio_config_example
*CAP
1 gpio_dm2[25] 0.002962
2 *874:gpio_dm2[25] 0.00367154
3 *326:25 0.0547394
4 *326:23 0.0517774
5 *326:21 0.118467
6 *326:19 0.118524
7 *326:13 0.00405524
8 *326:11 0.00766988
9 gpio_dm2[25] gpio_holdover[25] 0.000246009
10 *326:11 *334:11 0.000102161
11 *326:13 *446:11 0
12 *326:13 *544:13 0.0107137
13 *326:21 *415:13 0
14 *326:21 *444:11 0.00477484
15 *326:21 *446:11 0.00534708
16 *326:21 *531:13 0
17 *326:21 *533:21 0.0633938
18 *326:21 *544:13 0.000185018
19 gpio_analog_sel[25] gpio_dm2[25] 0.000428436
20 gpio_analog_sel[25] *326:25 0.00329885
21 *109:13 *326:13 0.000675604
22 *109:13 *326:21 0.144244
23 *149:21 *326:21 0
24 *156:11 *326:11 0
25 *176:13 *326:19 8.16944e-06
26 *195:7 *326:11 3.11601e-05
27 *211:11 *326:11 0
28 *281:21 *326:21 0
29 *286:19 *326:19 4.02281e-06
*RES
1 *874:gpio_dm2[25] *326:11 16.3179 
2 *326:11 *326:13 137.481 
3 *326:13 *326:19 16.0989 
4 *326:19 *326:21 466.409 
5 *326:21 *326:23 8 
6 *326:23 *326:25 150.838 
7 *326:25 gpio_dm2[25] 7.25667 
*END

*D_NET *327 0.579637
*CONN
*P gpio_dm2[26] O
*I *874:gpio_dm2[26] O *D counter_gpio_config_example
*CAP
1 gpio_dm2[26] 0.00447207
2 *874:gpio_dm2[26] 0.00902888
3 *327:9 0.158996
4 *327:7 0.163553
5 gpio_dm2[26] gpio_holdover[26] 0.000203674
6 *327:7 *374:7 0.000959455
7 *327:9 *459:11 0.0592918
8 *327:9 *538:9 0.00544561
9 gpio_analog_sel[26] gpio_dm2[26] 0.000469403
10 *178:9 *327:7 0
11 *184:7 *327:7 0.000833428
12 *195:13 gpio_dm2[26] 0.00536344
13 *198:9 *327:9 0.17102
14 *202:9 *327:9 0
15 *285:9 *327:9 0
*RES
1 *874:gpio_dm2[26] *327:7 31.8989 
2 *327:7 *327:9 550.947 
3 *327:9 gpio_dm2[26] 21.9505 
*END

*D_NET *328 0.626612
*CONN
*P gpio_dm2[27] O
*I *874:gpio_dm2[27] O *D counter_gpio_config_example
*CAP
1 gpio_dm2[27] 0.00666065
2 *874:gpio_dm2[27] 0.00569446
3 *328:9 0.0776442
4 *328:7 0.076678
5 gpio_dm2[27] gpio_holdover[27] 0
6 *328:7 *383:7 0
7 gpio_analog_sel[27] gpio_dm2[27] 0.0115174
8 *129:7 *328:7 3.467e-05
9 *150:9 *328:9 0.226781
10 *155:7 *328:7 0.000110251
11 *162:9 *328:9 0
12 *193:17 *328:9 2.6376e-06
13 *196:9 *328:9 0.221489
14 *284:9 *328:9 0
15 *291:7 *328:7 0
*RES
1 *874:gpio_dm2[27] *328:7 22.9688 
2 *328:7 *328:9 551.581 
3 *328:9 gpio_dm2[27] 30.7332 
*END

*D_NET *329 0.38894
*CONN
*P gpio_dm2[28] O
*I *874:gpio_dm2[28] O *D counter_gpio_config_example
*CAP
1 gpio_dm2[28] 0.00139431
2 *874:gpio_dm2[28] 0.00475252
3 *329:27 0.00939757
4 *329:17 0.0572199
5 *329:15 0.0493218
6 *329:9 0.0308962
7 *329:7 0.0355436
8 gpio_dm2[28] gpio_holdover[28] 0.000782478
9 *329:7 *412:7 0
10 *329:15 gpio_ib_mode_sel[31] 5.51976e-06
11 *329:27 gpio_holdover[28] 0.00698611
12 *329:27 *725:25 0
13 gpio_analog_sel[28] gpio_dm2[28] 0
14 gpio_analog_sel[28] *329:27 0
15 *101:9 *329:9 0.125862
16 *118:16 *329:7 0.000126949
17 *190:7 *329:7 4.4246e-05
18 *217:7 *329:7 0.000687631
19 *217:9 *329:9 0.0657775
20 *259:17 *329:9 0.00014199
*RES
1 *874:gpio_dm2[28] *329:7 18.6325 
2 *329:7 *329:9 1602.4 
3 *329:9 *329:15 16.2707 
4 *329:15 *329:17 123.181 
5 *329:17 *329:27 49.7984 
6 *329:27 gpio_dm2[28] 3.73427 
*END

*D_NET *330 0.356418
*CONN
*P gpio_dm2[29] O
*I *874:gpio_dm2[29] O *D counter_gpio_config_example
*CAP
1 gpio_dm2[29] 0.00265038
2 *874:gpio_dm2[29] 0.00245113
3 *330:33 0.054451
4 *330:31 0.0560209
5 *330:21 0.0676386
6 *330:19 0.0637624
7 *330:13 0.0138905
8 *330:11 0.0159975
9 gpio_dm2[29] gpio_holdover[29] 0.000638263
10 *330:11 *331:7 3.6737e-05
11 *330:11 *331:9 0.000320688
12 *330:13 *372:13 0.0051653
13 *330:21 *415:13 0.000121329
14 *330:33 gpio_holdover[29] 7.95147e-06
15 gpio_analog_sel[29] gpio_dm2[29] 0.000643783
16 gpio_analog_sel[29] *330:33 0.000461218
17 *103:13 *330:13 0.0062229
18 *106:13 *330:13 0.0136123
19 *106:19 *330:31 0.000389143
20 *106:21 *330:31 6.10873e-05
21 *134:7 *330:11 3.98964e-05
22 *134:9 *330:11 0.000317528
23 *149:21 *330:21 0.041095
24 *149:21 *330:31 0.0009778
25 *203:17 *330:19 0
26 *238:13 *330:13 7.07194e-05
27 *240:13 *330:13 3.15006e-05
28 *246:37 *330:21 0.00922731
29 *246:51 *330:21 0.00011471
*RES
1 *874:gpio_dm2[29] *330:11 13.8277 
2 *330:11 *330:13 438.211 
3 *330:13 *330:19 16.7859 
4 *330:19 *330:21 231.956 
5 *330:21 *330:31 19.7675 
6 *330:31 *330:33 144.312 
7 *330:33 gpio_dm2[29] 7.05507 
*END

*D_NET *331 0.378317
*CONN
*P gpio_dm2[2] O
*I *874:gpio_dm2[2] O *D counter_gpio_config_example
*CAP
1 gpio_dm2[2] 0.00612265
2 *874:gpio_dm2[2] 0.000233685
3 *331:13 0.0174665
4 *331:11 0.0113438
5 *331:9 0.147447
6 *331:7 0.147681
7 gpio_dm2[2] gpio_holdover[2] 0.00192265
8 gpio_dm2[2] gpio_out[2] 0.000362027
9 gpio_dm2[2] *342:25 0
10 gpio_dm2[2] *375:19 0
11 gpio_dm2[2] *833:13 0
12 *331:7 *367:15 3.98964e-05
13 *331:9 *346:17 0
14 *331:9 *367:15 0.000258367
15 *331:9 *423:11 0
16 *331:13 *386:13 0.0145361
17 *92:13 *331:13 0.0282264
18 *134:9 *331:9 0
19 *261:13 *331:13 0.00232002
20 *330:11 *331:7 3.6737e-05
21 *330:11 *331:9 0.000320688
*RES
1 *874:gpio_dm2[2] *331:7 0.662667 
2 *331:7 *331:9 426.813 
3 *331:9 *331:11 8 
4 *331:11 *331:13 68.6 
5 *331:13 gpio_dm2[2] 44.6221 
*END

*D_NET *332 0.284337
*CONN
*P gpio_dm2[30] O
*I *874:gpio_dm2[30] O *D counter_gpio_config_example
*CAP
1 gpio_dm2[30] 0.00394266
2 *874:gpio_dm2[30] 0.00956848
3 *332:17 0.0663473
4 *332:15 0.0627883
5 *332:9 0.0625593
6 *332:7 0.0717442
7 gpio_dm2[30] gpio_holdover[30] 0
8 *332:9 *459:11 0
9 *332:9 *461:11 0
10 *332:15 gpio_inp_dis[32] 0.000113665
11 *332:17 gpio_inp_dis[32] 6.99019e-05
12 gpio_analog_sel[30] gpio_dm2[30] 0.00166236
13 *139:7 *332:7 3.49644e-05
14 *158:15 *332:15 0.000562672
15 *200:17 gpio_dm2[30] 0.00430796
16 *259:7 *332:7 0.000635175
*RES
1 *874:gpio_dm2[30] *332:7 32.7147 
2 *332:7 *332:9 1386.88 
3 *332:9 *332:15 17.1293 
4 *332:15 *332:17 157.199 
5 *332:17 gpio_dm2[30] 19.9065 
*END

*D_NET *333 0.314714
*CONN
*P gpio_dm2[31] O
*I *874:gpio_dm2[31] O *D counter_gpio_config_example
*CAP
1 gpio_dm2[31] 0.00862915
2 *874:gpio_dm2[31] 0.0054574
3 *333:9 0.0720163
4 *333:7 0.0688446
5 gpio_dm2[31] gpio_holdover[31] 0.00995296
6 *333:7 *395:7 0.000857865
7 *333:9 *374:9 0.0119087
8 *333:9 *418:9 0.131101
9 gpio_analog_sel[31] gpio_dm2[31] 0
10 *162:9 *333:9 0.00590185
11 *241:17 gpio_dm2[31] 4.43291e-05
*RES
1 *874:gpio_dm2[31] *333:7 20.7363 
2 *333:7 *333:9 318.913 
3 *333:9 gpio_dm2[31] 33.83 
*END

*D_NET *334 0.251236
*CONN
*P gpio_dm2[32] O
*I *874:gpio_dm2[32] O *D counter_gpio_config_example
*CAP
1 gpio_dm2[32] 0.000120873
2 *874:gpio_dm2[32] 0.000794459
3 *334:17 0.0557942
4 *334:15 0.0556734
5 *334:13 0.0280278
6 *334:11 0.0288223
7 *334:13 *335:13 0.00528458
8 *334:13 *337:13 0.000151253
9 *334:13 *368:57 0.000168454
10 *334:13 *378:19 0.000386156
11 *334:13 *378:21 0.0519482
12 *334:13 *422:13 0.000104065
13 *334:13 *556:13 0.0211544
14 *334:17 gpio_holdover[32] 0.00155345
15 *334:17 *378:25 0
16 gpio_analog_sel[32] *334:17 0.00101088
17 *156:11 *334:11 0.000138974
18 *326:11 *334:11 0.000102161
*RES
1 *874:gpio_dm2[32] *334:11 10.0925 
2 *334:11 *334:13 131.051 
3 *334:13 *334:15 8 
4 *334:15 *334:17 151.067 
5 *334:17 gpio_dm2[32] 0.463867 
*END

*D_NET *335 0.306168
*CONN
*P gpio_dm2[33] O
*I *874:gpio_dm2[33] O *D counter_gpio_config_example
*CAP
1 gpio_dm2[33] 0.000490706
2 *874:gpio_dm2[33] 0.000630904
3 *335:17 0.049524
4 *335:15 0.0490333
5 *335:13 0.0192324
6 *335:11 0.0198633
7 gpio_dm2[33] gpio_holdover[33] 0
8 gpio_dm2[33] *726:21 0.000811112
9 *335:11 *403:7 2.79668e-05
10 *335:11 *403:9 8.91991e-05
11 *335:13 *337:13 0.0432339
12 *335:13 *422:13 0.076561
13 *335:13 *463:11 0.00208049
14 *335:17 gpio_holdover[33] 0.00129524
15 *335:17 *708:9 0.037233
16 gpio_analog_sel[33] gpio_dm2[33] 0.000203851
17 *200:11 *335:11 4.4173e-05
18 *270:9 *335:11 0
19 *290:13 *335:13 0.000529275
20 *334:13 *335:13 0.00528458
*RES
1 *874:gpio_dm2[33] *335:11 10.1355 
2 *335:11 *335:13 984.736 
3 *335:13 *335:15 8 
4 *335:15 *335:17 150.666 
5 *335:17 gpio_dm2[33] 27.0314 
*END

*D_NET *336 0.133286
*CONN
*P gpio_dm2[34] O
*I *874:gpio_dm2[34] O *D counter_gpio_config_example
*CAP
1 gpio_dm2[34] 0.00624009
2 *874:gpio_dm2[34] 0.00913725
3 *336:9 0.023168
4 *336:7 0.0260652
5 gpio_dm2[34] *380:17 0.00162325
6 *336:7 *361:7 0
7 *336:7 *413:7 0.0014296
8 *336:9 *361:9 0.00696817
9 *336:9 *365:9 0.00388127
10 *336:9 *413:17 0.0078604
11 gpio_analog_sel[34] gpio_dm2[34] 0
12 *157:17 *336:9 0.00628701
13 *159:9 *336:9 0.0399895
14 *260:7 *336:7 0.000636422
15 *289:9 *336:9 0
*RES
1 *874:gpio_dm2[34] *336:7 30.3533 
2 *336:7 *336:9 97.4139 
3 *336:9 gpio_dm2[34] 23.6529 
*END

*D_NET *337 0.310834
*CONN
*P gpio_dm2[35] O
*I *874:gpio_dm2[35] O *D counter_gpio_config_example
*CAP
1 gpio_dm2[35] 0.000437887
2 *874:gpio_dm2[35] 0.000821455
3 *337:21 0.00185614
4 *337:19 0.00141825
5 *337:17 0.0247543
6 *337:15 0.0247543
7 *337:13 0.0118728
8 *337:11 0.0126943
9 gpio_dm2[35] gpio_holdover[35] 0
10 *337:13 *463:11 0.0014186
11 *337:13 *556:13 0.000312195
12 *337:13 *557:13 0
13 *337:17 *338:17 3.3405e-05
14 *337:17 *557:17 0.0780793
15 *337:17 *829:16 0.0019044
16 *337:21 *381:21 0.00688538
17 *337:21 *557:21 0.00563174
18 *337:21 *726:21 0.000369857
19 gpio_analog_sel[35] gpio_dm2[35] 0.000205708
20 *103:11 *337:11 0
21 *170:11 *337:11 0.000114713
22 *215:31 *337:17 0.00202391
23 *290:13 *337:13 0.0139718
24 *293:17 *337:17 0.0778887
25 *334:13 *337:13 0.000151253
26 *335:13 *337:13 0.0432339
*RES
1 *874:gpio_dm2[35] *337:11 10.2213 
2 *337:11 *337:13 557.939 
3 *337:13 *337:15 8 
4 *337:15 *337:17 150.409 
5 *337:17 *337:19 8 
6 *337:19 *337:21 88.885 
7 *337:21 gpio_dm2[35] 9.31693 
*END

*D_NET *338 0.279775
*CONN
*P gpio_dm2[36] O
*I *874:gpio_dm2[36] O *D counter_gpio_config_example
*CAP
1 gpio_dm2[36] 0.000341489
2 *874:gpio_dm2[36] 0.000539971
3 *338:21 0.00810996
4 *338:19 0.00776847
5 *338:17 0.025823
6 *338:15 0.025823
7 *338:13 0.00231203
8 *338:11 0.002852
9 gpio_dm2[36] gpio_holdover[36] 7.20529e-05
10 *338:13 *427:13 0.00534449
11 *338:13 *546:13 0
12 *338:17 *347:21 0.00756167
13 *338:17 *381:17 5.77181e-06
14 *338:17 *427:17 0.0774208
15 *338:17 *829:16 0.00106132
16 *338:21 *381:21 0.000154967
17 *338:21 *425:21 0.00825226
18 *338:21 *427:21 0.0245416
19 *338:21 *726:21 0
20 gpio_analog_sel[36] gpio_dm2[36] 0.000520844
21 *117:17 *338:17 2.17681e-05
22 *134:7 *338:11 3.3537e-05
23 *134:9 *338:11 3.24146e-05
24 *215:31 *338:17 0.00365693
25 *293:17 *338:17 0.0774211
26 *321:11 *338:11 7.03553e-05
27 *337:17 *338:17 3.3405e-05
*RES
1 *874:gpio_dm2[36] *338:11 9.2768 
2 *338:11 *338:13 69.8693 
3 *338:13 *338:15 8 
4 *338:15 *338:17 149.206 
5 *338:17 *338:19 8 
6 *338:19 *338:21 316.369 
7 *338:21 gpio_dm2[36] 9.10133 
*END

*D_NET *339 0.188353
*CONN
*P gpio_dm2[37] O
*I *874:gpio_dm2[37] O *D counter_gpio_config_example
*CAP
1 gpio_dm2[37] 0.0003871
2 *874:gpio_dm2[37] 0.0825471
3 *339:35 0.00287101
4 *339:33 0.00619001
5 *339:29 0.0862532
6 gpio_dm2[37] gpio_holdover[37] 7.20775e-05
7 *339:29 *554:7 0.00134565
8 *339:35 gpio_vtrip_sel[37] 0
9 *339:35 *427:21 0
10 *339:35 *726:21 0.0064598
11 *160:15 *339:29 2.93912e-05
12 *256:7 *339:29 4.4107e-05
13 *256:9 *339:29 4.8317e-05
14 *262:7 *339:29 5.20351e-05
15 *262:9 *339:29 3.67308e-05
16 *295:20 *339:29 0.00201661
*RES
1 *874:gpio_dm2[37] *339:29 42.5337 
2 *339:29 *339:33 15.9128 
3 *339:33 *339:35 83.2507 
4 *339:35 gpio_dm2[37] 9.106 
*END

*D_NET *340 0.178828
*CONN
*P gpio_dm2[38] O
*I *874:gpio_dm2[38] O *D counter_gpio_config_example
*CAP
1 gpio_dm2[38] 0.000275166
2 *874:gpio_dm2[38] 0.000162319
3 *340:17 0.0169375
4 *340:15 0.0166624
5 *340:13 0.00242067
6 *340:11 0.00244789
7 *340:9 0.00432307
8 *340:7 0.00445817
9 gpio_dm2[38] *384:21 0
10 *340:7 *404:9 0.000130287
11 *340:7 *569:11 3.84652e-05
12 *340:9 *342:13 0.000332775
13 *340:9 *389:9 0.00138869
14 *340:9 *560:11 0
15 *340:9 *563:11 0
16 *340:13 *563:11 0
17 *340:17 *344:27 0.0110239
18 *340:17 *344:35 0.000242899
19 *340:17 *739:9 0.0240412
20 *340:17 *828:11 0.000389618
21 *340:17 *828:13 0.00499536
22 *123:21 *340:17 0.005048
23 *162:7 *340:7 0
24 *164:13 *340:17 0.0540202
25 *168:19 *340:13 7.91016e-05
26 *208:40 gpio_dm2[38] 9.35401e-05
27 *212:13 *340:17 0.000380504
28 *296:9 *340:9 0.0145771
29 *296:9 *340:13 0.00323781
30 *300:21 *340:17 0.000280429
31 *301:9 *340:9 0.0108407
*RES
1 *874:gpio_dm2[38] *340:7 8.50027 
2 *340:7 *340:9 221.809 
3 *340:9 *340:11 0.621429 
4 *340:11 *340:13 81.3243 
5 *340:13 *340:15 8 
6 *340:15 *340:17 107.389 
7 *340:17 gpio_dm2[38] 14.0589 
*END

*D_NET *341 0.19043
*CONN
*P gpio_dm2[39] O
*I *874:gpio_dm2[39] O *D counter_gpio_config_example
*CAP
1 gpio_dm2[39] 1.07118e-05
2 *874:gpio_dm2[39] 0.000211715
3 *341:13 0.0341177
4 *341:11 0.034107
5 *341:9 0.0267352
6 *341:7 0.0269469
7 *341:9 gpio_slow_sel[3] 0.00806803
8 *341:13 gpio_holdover[39] 0.00135999
9 *341:13 *385:13 0.0504246
10 *128:15 *341:7 3.41368e-05
11 *128:15 *341:9 8.52474e-05
12 *315:7 *341:7 3.86115e-05
13 *315:9 *341:7 5.5178e-06
14 *315:9 *341:9 0.00828483
*RES
1 *874:gpio_dm2[39] *341:7 0.662667 
2 *341:7 *341:9 96.4413 
3 *341:9 *341:11 8 
4 *341:11 *341:13 1011.71 
5 *341:13 gpio_dm2[39] 0.258929 
*END

*D_NET *342 0.611285
*CONN
*P gpio_dm2[3] O
*I *874:gpio_dm2[3] O *D counter_gpio_config_example
*CAP
1 gpio_dm2[3] 0.0019596
2 *874:gpio_dm2[3] 0.010103
3 *342:25 0.028546
4 *342:23 0.0265864
5 *342:21 0.0908209
6 *342:19 0.0908303
7 *342:13 0.0101125
8 gpio_dm2[3] gpio_holdover[3] 0
9 gpio_dm2[3] *738:25 5.27422e-05
10 *342:13 *344:19 0.000212846
11 *342:13 *347:9 0.00227564
12 *342:13 *354:13 3.38115e-05
13 *342:13 *377:7 3.38115e-05
14 *342:13 *389:9 0.000259673
15 *342:13 *404:11 0.000332775
16 *342:13 *433:10 0
17 *342:13 *471:15 4.81059e-05
18 *342:13 *560:11 0.000646809
19 *342:13 *564:8 0.000566054
20 *342:13 *566:6 3.43886e-05
21 *342:19 *404:11 2.11066e-05
22 *342:21 *404:15 0.0161827
23 *342:21 *457:23 3.95707e-06
24 *342:21 *482:15 0.23779
25 *342:21 *484:15 0.000344524
26 *342:21 *662:15 0
27 *342:21 *738:17 0
28 *342:21 *782:25 0
29 *342:25 gpio_out[2] 0
30 gpio_analog_sel[3] gpio_dm2[3] 0.000291325
31 gpio_dm0[2] *342:25 0
32 gpio_dm0[3] *342:25 0
33 gpio_dm2[2] *342:25 0
34 *129:9 *342:13 0.00183657
35 *155:25 *342:25 0.0445598
36 *296:9 *342:13 0.000285894
37 *301:9 *342:13 0.000485682
38 *301:9 *342:19 2.52012e-05
39 *302:9 *342:13 0.000212846
40 *309:13 *342:13 5.12311e-05
41 *309:13 *342:21 0.045406
42 *340:9 *342:13 0.000332775
*RES
1 *874:gpio_dm2[3] *342:13 43.4363 
2 *342:13 *342:19 23.3211 
3 *342:19 *342:21 3048.81 
4 *342:21 *342:23 15 
5 *342:23 *342:25 819.053 
6 *342:25 gpio_dm2[3] 12.8524 
*END

*D_NET *343 0.239107
*CONN
*P gpio_dm2[40] O
*I *874:gpio_dm2[40] O *D counter_gpio_config_example
*CAP
1 gpio_dm2[40] 0.000962201
2 *874:gpio_dm2[40] 0.000350556
3 *343:27 0.00118113
4 *343:21 0.00656044
5 *343:19 0.00634151
6 *343:17 0.0339912
7 *343:15 0.0339912
8 *343:13 0.00876342
9 *343:11 0.00911397
10 gpio_dm2[40] *387:13 0
11 *343:11 *405:7 3.7642e-05
12 *343:11 *405:9 0
13 *343:11 *422:11 0.000151007
14 *343:13 *549:13 0
15 *343:13 *760:17 0.0238464
16 *343:13 *771:13 0.030142
17 *343:17 *434:13 0.0776009
18 *211:21 gpio_dm2[40] 0
19 *211:21 *343:21 0.00607367
*RES
1 *874:gpio_dm2[40] *343:11 9.29299 
2 *343:11 *343:13 441.028 
3 *343:13 *343:15 8 
4 *343:15 *343:17 146.029 
5 *343:17 *343:19 8 
6 *343:19 *343:21 165.124 
7 *343:21 *343:27 33.9564 
8 *343:27 gpio_dm2[40] 19.3057 
*END

*D_NET *344 0.469556
*CONN
*P gpio_dm2[41] O
*I *874:gpio_dm2[41] O *D counter_gpio_config_example
*CAP
1 gpio_dm2[41] 0.000249791
2 *874:gpio_dm2[41] 0.00129484
3 *344:35 0.0209731
4 *344:33 0.0208416
5 *344:27 0.0100492
6 *344:19 0.0213936
7 *344:17 0.0127576
8 gpio_dm2[41] *388:25 0
9 *344:17 *532:17 1.71885e-06
10 *344:17 *664:18 0
11 *344:17 *665:14 0.000325813
12 *344:19 *347:9 0.00105223
13 *344:19 *389:9 0.024168
14 *344:19 *391:9 0.000147249
15 *344:27 *433:22 0.00305875
16 *344:35 *433:22 0
17 *344:35 *739:9 0.0109362
18 *344:35 *828:13 0.00315528
19 gpio_analog_sel[41] gpio_dm2[41] 0
20 *125:19 *344:19 1.83553e-05
21 *125:21 *344:35 0.000985902
22 *139:9 *344:19 0.00139774
23 *147:9 *344:19 0.00449721
24 *164:13 *344:27 8.65763e-05
25 *164:13 *344:35 0.00565898
26 *168:19 *344:27 0.000136336
27 *168:21 *344:35 0.140029
28 *179:9 *344:17 9.463e-05
29 *212:13 *344:35 0.000208163
30 *288:7 *344:17 7.51664e-05
31 *296:9 *344:19 0.0086018
32 *300:21 *344:35 0.130316
33 *301:9 *344:17 0.000631061
34 *302:9 *344:19 0.0347762
35 *323:7 *344:17 0.000158812
36 *340:17 *344:27 0.0110239
37 *340:17 *344:35 0.000242899
38 *342:13 *344:19 0.000212846
*RES
1 *874:gpio_dm2[41] *344:17 49.4683 
2 *344:17 *344:19 617.099 
3 *344:19 *344:27 46.248 
4 *344:27 *344:33 25.0818 
5 *344:33 *344:35 1517.09 
6 *344:35 gpio_dm2[41] 20.4064 
*END

*D_NET *345 0.256584
*CONN
*P gpio_dm2[42] O
*I *874:gpio_dm2[42] O *D counter_gpio_config_example
*CAP
1 gpio_dm2[42] 0.00032695
2 *874:gpio_dm2[42] 0.000180045
3 *345:21 0.0121952
4 *345:19 0.0118683
5 *345:17 0.00344582
6 *345:15 0.00347304
7 *345:13 0.0300836
8 *345:11 0.0300564
9 *345:9 0.0647135
10 *345:7 0.0648935
11 gpio_dm2[42] *389:21 0
12 *345:7 *394:7 3.37536e-05
13 *345:7 *394:9 5.66735e-06
14 *345:7 *400:11 3.37536e-05
15 *345:9 *394:9 0.010142
16 *345:9 *400:11 0.00184851
17 *345:9 *463:7 0
18 *345:9 *771:21 0
19 *345:13 *696:18 0
20 *345:17 gpio_vtrip_sel[41] 4.77164e-06
21 *345:17 *432:23 0
22 *345:17 *696:18 0
23 *345:21 *433:22 0.000227128
24 *345:21 *478:9 0
25 *257:17 *345:21 0.0230522
*RES
1 *874:gpio_dm2[42] *345:7 0.662667 
2 *345:7 *345:9 201.37 
3 *345:9 *345:11 8 
4 *345:11 *345:13 686.637 
5 *345:13 *345:15 0.621429 
6 *345:15 *345:17 79.9157 
7 *345:17 *345:19 8 
8 *345:19 *345:21 48.3131 
9 *345:21 gpio_dm2[42] 15.1775 
*END

*D_NET *346 0.352552
*CONN
*P gpio_dm2[43] O
*I *874:gpio_dm2[43] O *D counter_gpio_config_example
*CAP
1 gpio_dm2[43] 0.000837938
2 *874:gpio_dm2[43] 0.0045822
3 *346:27 0.00107109
4 *346:21 0.0416138
5 *346:19 0.0413807
6 *346:17 0.0995361
7 *346:15 0.0995361
8 *346:13 0.00168523
9 *346:11 0.00626743
10 gpio_dm2[43] *390:21 0
11 *346:13 *357:21 0
12 *346:13 *749:25 0.00445707
13 *346:17 *397:9 0
14 *346:21 *742:13 0
15 *114:13 *346:11 0.000442758
16 *128:17 *346:13 0.000121281
17 *185:9 *346:11 0
18 *214:21 gpio_dm2[43] 0
19 *214:21 *346:21 0.0509945
20 *265:7 *346:11 2.35779e-05
21 *265:9 *346:11 2.23456e-06
22 *331:9 *346:17 0
*RES
1 *874:gpio_dm2[43] *346:11 18.1373 
2 *346:11 *346:13 57.1921 
3 *346:13 *346:15 8 
4 *346:15 *346:17 290.457 
5 *346:17 *346:19 8 
6 *346:19 *346:21 1186.34 
7 *346:21 *346:27 34.4329 
8 *346:27 gpio_dm2[43] 19.7614 
*END

*D_NET *347 0.610082
*CONN
*P gpio_dm2[4] O
*I *874:gpio_dm2[4] O *D counter_gpio_config_example
*CAP
1 gpio_dm2[4] 0.000229685
2 *874:gpio_dm2[4] 0.000242238
3 *347:21 0.0995008
4 *347:19 0.0994042
5 *347:9 0.0387379
6 *347:7 0.0388471
7 gpio_dm2[4] gpio_holdover[4] 4.66782e-05
8 *347:7 *569:11 5.33289e-05
9 *347:9 *389:9 0.000844085
10 *347:9 *391:9 0.0556124
11 *347:9 *434:9 0.000242562
12 *347:19 *425:17 2.24267e-05
13 *347:19 *557:17 4.81059e-05
14 *347:21 *391:21 0.125714
15 *347:21 *557:17 0.000111283
16 gpio_analog_sel[4] gpio_dm2[4] 5.58599e-05
17 *102:7 *347:7 5.69873e-05
18 *127:21 *347:21 0
19 *129:9 *347:9 0.0676309
20 *139:9 *347:9 0.00512288
21 *139:9 *347:19 0.00024836
22 *143:9 *347:19 0.000253298
23 *147:9 *347:9 0.00681137
24 *148:17 *347:21 0.0590733
25 *302:9 *347:9 0.000282337
26 *338:17 *347:21 0.00756167
27 *342:13 *347:9 0.00227564
28 *344:19 *347:9 0.00105223
*RES
1 *874:gpio_dm2[4] *347:7 8.71493 
2 *347:7 *347:9 177.763 
3 *347:9 *347:19 34.5893 
4 *347:19 *347:21 3072.16 
5 *347:21 gpio_dm2[4] 23.7686 
*END

*D_NET *348 0.454765
*CONN
*P gpio_dm2[5] O
*I *874:gpio_dm2[5] O *D counter_gpio_config_example
*CAP
1 gpio_dm2[5] 0.00320065
2 *874:gpio_dm2[5] 0.000173626
3 *348:13 0.0439403
4 *348:11 0.0407397
5 *348:9 0.13905
6 *348:7 0.139223
7 gpio_dm2[5] gpio_holdover[5] 0.00191955
8 gpio_dm2[5] gpio_out[5] 0
9 gpio_dm2[5] *392:17 0.00299205
10 *348:7 *387:7 4.21669e-05
11 *348:7 *387:9 6.73098e-06
12 *348:9 *387:9 0.0130042
13 *348:13 *435:15 0.0131796
14 *348:13 *483:11 0.000849018
15 *348:13 *484:11 0.0195174
16 *348:13 *700:13 0.00603648
17 *89:13 *348:13 0.0196599
18 *171:19 *348:13 0.000152793
19 *188:13 *348:13 0.00461957
20 *275:7 *348:7 4.21669e-05
21 *275:7 *348:9 6.73098e-06
22 *275:9 *348:9 0.00640979
*RES
1 *874:gpio_dm2[5] *348:7 0.662667 
2 *348:7 *348:9 431.794 
3 *348:9 *348:11 8 
4 *348:11 *348:13 147.426 
5 *348:13 gpio_dm2[5] 17.7916 
*END

*D_NET *349 0.723139
*CONN
*P gpio_dm2[6] O
*I *874:gpio_dm2[6] O *D counter_gpio_config_example
*CAP
1 gpio_dm2[6] 0.00343617
2 *874:gpio_dm2[6] 0.00379353
3 *349:13 0.137406
4 *349:11 0.13397
5 *349:9 0.0161105
6 *349:7 0.019904
7 gpio_dm2[6] *393:13 0.000490246
8 *349:7 *366:7 0.000633545
9 *349:9 *529:9 0.000553709
10 *349:13 *393:13 0
11 *102:9 *349:9 0.0281297
12 *168:9 *349:9 0.00817805
13 *173:9 *349:9 0.0694115
14 *205:21 *349:9 0.0061893
15 *207:7 *349:7 0.000633545
16 *217:13 gpio_dm2[6] 0.000486809
17 *217:13 *349:13 0.293812
*RES
1 *874:gpio_dm2[6] *349:7 17.4304 
2 *349:7 *349:9 919.942 
3 *349:9 *349:11 8 
4 *349:11 *349:13 555.399 
5 *349:13 gpio_dm2[6] 8.65107 
*END

*D_NET *350 0.779321
*CONN
*P gpio_dm2[7] O
*I *874:gpio_dm2[7] O *D counter_gpio_config_example
*CAP
1 gpio_dm2[7] 7.18827e-05
2 *874:gpio_dm2[7] 0.00384648
3 *350:19 0.164147
4 *350:17 0.164075
5 *350:15 0.134898
6 *350:13 0.138744
7 *350:13 *352:15 3.99587e-05
8 *350:13 *379:11 0
9 *350:15 *535:9 0.00751681
10 *350:19 gpio_holdover[7] 0.00108909
11 *350:19 *394:17 0.147188
12 *218:17 *350:19 0
13 *316:9 *350:13 0.00169827
14 *317:9 *350:15 0.00542539
15 *322:9 *350:15 0.00441849
16 *323:9 *350:15 0.00616383
*RES
1 *874:gpio_dm2[7] *350:13 16.3347 
2 *350:13 *350:15 331.135 
3 *350:15 *350:17 8 
4 *350:17 *350:19 556.871 
5 *350:19 gpio_dm2[7] 0.284667 
*END

*D_NET *351 0.701077
*CONN
*P gpio_dm2[8] O
*I *874:gpio_dm2[8] O *D counter_gpio_config_example
*CAP
1 gpio_dm2[8] 0.00635629
2 *874:gpio_dm2[8] 0.000246439
3 *351:13 0.0723398
4 *351:11 0.0659835
5 *351:9 0.101383
6 *351:7 0.10163
7 gpio_dm2[8] gpio_holdover[8] 0.00192596
8 gpio_dm2[8] gpio_out[8] 5.77181e-06
9 gpio_dm2[8] *395:13 1.73354e-05
10 gpio_dm2[8] *747:9 0.00969992
11 *351:9 *479:7 0.213606
12 *134:13 *351:13 0.124458
13 *216:7 *351:7 2.82839e-05
14 *216:9 *351:7 3.1594e-06
15 *216:9 *351:9 0.000347715
16 *258:11 *351:7 2.82839e-05
17 *258:11 *351:9 0.00135667
18 *303:13 *351:13 0.00166132
*RES
1 *874:gpio_dm2[8] *351:7 0.662667 
2 *351:7 *351:9 419.085 
3 *351:9 *351:11 8 
4 *351:11 *351:13 301.65 
5 *351:13 gpio_dm2[8] 30.7985 
*END

*D_NET *352 0.985768
*CONN
*P gpio_dm2[9] O
*I *874:gpio_dm2[9] O *D counter_gpio_config_example
*CAP
1 gpio_dm2[9] 0.0031081
2 *874:gpio_dm2[9] 0.00123126
3 *352:21 0.135797
4 *352:19 0.132689
5 *352:17 0.0603725
6 *352:15 0.0605605
7 *352:9 0.0387209
8 *352:7 0.0397641
9 gpio_dm2[9] gpio_holdover[9] 0
10 *352:7 *359:7 0.000178887
11 *352:9 *535:9 0.000312195
12 *352:15 *379:11 1.59598e-05
13 *352:17 *359:9 0.0443015
14 *352:17 *535:9 0
15 *352:21 gpio_holdover[9] 0
16 *162:7 *352:7 0.000193454
17 *220:21 gpio_dm2[9] 0.00183984
18 *220:21 *352:21 0.284121
19 *311:9 *352:17 0.180714
20 *322:9 *352:9 0.0001646
21 *323:9 *352:9 0.00164196
22 *350:13 *352:15 3.99587e-05
*RES
1 *874:gpio_dm2[9] *352:7 11.2909 
2 *352:7 *352:9 88.9093 
3 *352:9 *352:15 16.3565 
4 *352:15 *352:17 2327.81 
5 *352:17 *352:19 8 
6 *352:19 *352:21 548.959 
7 *352:21 gpio_dm2[9] 8.29267 
*END

*D_NET *353 0.361049
*CONN
*P gpio_holdover[0] O
*I *874:gpio_holdover[0] O *D counter_gpio_config_example
*CAP
1 gpio_holdover[0] 0.00550255
2 *874:gpio_holdover[0] 0.000162955
3 *353:13 0.0246831
4 *353:11 0.0191806
5 *353:9 0.12494
6 *353:7 0.125103
7 gpio_holdover[0] *705:45 0.00437458
8 *353:7 *437:7 4.4107e-05
9 *353:9 *430:13 0.000822183
10 *353:9 *437:7 7.9281e-06
11 *353:9 *437:9 0.0371421
12 gpio_analog_sel[0] gpio_holdover[0] 0
13 gpio_dm2[0] gpio_holdover[0] 0
14 *92:13 *353:13 0.000851239
15 *100:13 *353:13 0
16 *177:17 gpio_holdover[0] 0
17 *199:15 *353:13 0.00992551
18 *209:7 *353:7 4.4107e-05
19 *209:9 *353:7 7.9281e-06
20 *209:9 *353:9 0.00825594
*RES
1 *874:gpio_holdover[0] *353:7 0.662667 
2 *353:7 *353:9 426.813 
3 *353:9 *353:11 8 
4 *353:11 *353:13 70.6309 
5 *353:13 gpio_holdover[0] 23.5969 
*END

*D_NET *354 0.91687
*CONN
*P gpio_holdover[10] O
*I *874:gpio_holdover[10] O *D counter_gpio_config_example
*CAP
1 gpio_holdover[10] 0.00192752
2 *874:gpio_holdover[10] 0.00946718
3 *354:21 0.154011
4 *354:19 0.152083
5 *354:17 0.0999916
6 *354:15 0.0999916
7 *354:13 0.00946718
8 gpio_holdover[10] *706:17 0
9 *354:13 *377:7 0
10 *354:17 *373:9 0.00499446
11 *354:17 *823:10 0
12 *178:21 *354:21 0
13 *193:7 *354:13 0.00105924
14 *291:9 *354:13 0.00249067
15 *307:7 *354:13 0.000106129
16 *307:17 *354:17 0.156334
17 *310:17 gpio_holdover[10] 0.00038235
18 *310:17 *354:21 0.22453
19 *342:13 *354:13 3.38115e-05
*RES
1 *874:gpio_holdover[10] *354:13 42.5403 
2 *354:13 *354:15 8 
3 *354:15 *354:17 2951.1 
4 *354:17 *354:19 8 
5 *354:19 *354:21 569.352 
6 *354:21 gpio_holdover[10] 23.9663 
*END

*D_NET *355 0.655122
*CONN
*P gpio_holdover[11] O
*I *874:gpio_holdover[11] O *D counter_gpio_config_example
*CAP
1 gpio_holdover[11] 0.00175601
2 *874:gpio_holdover[11] 0.000149522
3 *355:17 0.120993
4 *355:15 0.119237
5 *355:13 0.164075
6 *355:11 0.164075
7 *355:9 0.0242459
8 *355:7 0.0243955
9 gpio_holdover[11] gpio_out[11] 0.000246455
10 *355:7 *370:11 2.52435e-05
11 *355:9 *370:11 7.28343e-05
12 *355:9 *409:11 0
13 *355:9 *771:19 0
14 *355:9 *771:21 0
15 *355:17 gpio_out[11] 0
16 *355:17 *707:17 0.0351558
17 gpio_dm2[11] gpio_holdover[11] 0.000243017
18 gpio_dm2[11] *355:17 0.00039948
19 *237:7 *355:7 2.19771e-05
20 *237:7 *355:9 7.9281e-06
21 *287:15 *355:13 2.13985e-05
22 *311:13 *355:17 0
*RES
1 *874:gpio_holdover[11] *355:7 0.490933 
2 *355:7 *355:9 68.7493 
3 *355:9 *355:11 8 
4 *355:11 *355:13 508.805 
5 *355:13 *355:15 8 
6 *355:15 *355:17 369.111 
7 *355:17 gpio_holdover[11] 4.5108 
*END

*D_NET *356 0.627786
*CONN
*P gpio_holdover[12] O
*I *874:gpio_holdover[12] O *D counter_gpio_config_example
*CAP
1 gpio_holdover[12] 0.0163322
2 *874:gpio_holdover[12] 0.000227248
3 *356:20 0
4 *356:15 0.0163322
5 *356:13 0.158077
6 *356:11 0.158077
7 *356:9 0.130816
8 *356:7 0.131044
9 gpio_holdover[12] gpio_out[12] 0.0135462
10 gpio_holdover[12] *796:17 0
11 *356:7 *401:11 3.11601e-05
12 *356:7 *541:11 2.79086e-05
13 *356:9 *401:11 0.00137641
14 *356:9 *541:11 0.00189866
15 gpio_dm2[12] gpio_holdover[12] 0
16 *100:9 *356:9 0
17 *257:9 *356:9 0
18 *312:17 gpio_holdover[12] 0
*RES
1 *874:gpio_holdover[12] *356:7 0.662667 
2 *356:7 *356:9 388.002 
3 *356:9 *356:11 8 
4 *356:11 *356:13 494.207 
5 *356:13 *356:15 8 
6 *356:15 gpio_holdover[12] 53.5211 
7 gpio_holdover[12] *356:20 0.0746667 
*END

*D_NET *357 0.797204
*CONN
*P gpio_holdover[13] O
*I *874:gpio_holdover[13] O *D counter_gpio_config_example
*CAP
1 gpio_holdover[13] 0.00171983
2 *874:gpio_holdover[13] 0.00331854
3 *357:25 0.141879
4 *357:23 0.140159
5 *357:21 0.0972344
6 *357:19 0.0972344
7 *357:17 0.0107999
8 *357:11 0.0141184
9 gpio_holdover[13] gpio_out[13] 0
10 *357:11 *561:11 0
11 *357:17 gpio_slow_sel[3] 0.000659997
12 *357:17 *376:13 0.00666143
13 *357:17 *419:13 0.000780317
14 *357:21 *674:13 0.255251
15 *357:21 *749:25 0
16 *357:25 gpio_out[13] 0
17 gpio_dm2[13] gpio_holdover[13] 0.000925298
18 gpio_dm2[13] *357:25 0.0223137
19 *109:13 *357:17 0
20 *128:15 *357:17 0.000286693
21 *153:13 *357:17 0
22 *239:13 *357:17 0.000282337
23 *243:13 *357:17 4.90794e-05
24 *273:7 *357:11 2.70992e-05
25 *273:9 *357:11 0.000730889
26 *281:13 *357:17 0.00105223
27 *286:13 *357:17 0.00172052
28 *346:13 *357:21 0
*RES
1 *874:gpio_holdover[13] *357:11 17.2634 
2 *357:11 *357:17 47.564 
3 *357:17 *357:19 8 
4 *357:19 *357:21 3287.05 
5 *357:21 *357:23 8 
6 *357:23 *357:25 427.672 
7 *357:25 gpio_holdover[13] 22.5129 
*END

*D_NET *358 0.774857
*CONN
*P gpio_holdover[14] O
*I *874:gpio_holdover[14] O *D counter_gpio_config_example
*CAP
1 gpio_holdover[14] 0.000102389
2 *874:gpio_holdover[14] 0.000199744
3 *358:17 0.096461
4 *358:15 0.0963586
5 *358:13 0.235845
6 *358:11 0.235845
7 *358:9 0.053863
8 *358:7 0.0540627
9 *358:9 *546:11 0
10 *358:17 gpio_out[14] 0.00184208
11 gpio_dm2[14] *358:17 0.000242342
12 *182:17 *358:17 0
13 *218:13 *358:13 0
14 *234:7 *358:7 3.47144e-05
15 *287:7 *358:7 0
16 *287:9 *358:9 0
*RES
1 *874:gpio_holdover[14] *358:7 0.662667 
2 *358:7 *358:9 157.535 
3 *358:9 *358:11 8 
4 *358:11 *358:13 734.619 
5 *358:13 *358:15 8 
6 *358:15 *358:17 283.987 
7 *358:17 gpio_holdover[14] 0.392933 
*END

*D_NET *359 0.840199
*CONN
*P gpio_holdover[15] O
*I *874:gpio_holdover[15] O *D counter_gpio_config_example
*CAP
1 gpio_holdover[15] 9.38614e-05
2 *874:gpio_holdover[15] 0.00118858
3 *359:17 0.152924
4 *359:15 0.15283
5 *359:13 0.177877
6 *359:11 0.177877
7 *359:9 0.0226939
8 *359:7 0.0238825
9 gpio_holdover[15] gpio_out[15] 0
10 *359:9 *535:9 0.00103641
11 *359:9 *663:9 0.00127712
12 *359:13 *536:13 0
13 *359:13 *684:11 0
14 *359:13 *685:11 0.0111236
15 *359:13 *812:11 0
16 gpio_dm2[15] gpio_holdover[15] 0
17 gpio_dm2[15] *359:17 0
18 *164:7 *359:7 0.000105587
19 *220:7 *359:7 0
20 *300:9 *359:9 0.0118355
21 *311:9 *359:9 0.0045189
22 *324:9 *359:9 0.0564551
23 *352:7 *359:7 0.000178887
24 *352:17 *359:9 0.0443015
*RES
1 *874:gpio_holdover[15] *359:7 11.0763 
2 *359:7 *359:9 1061.5 
3 *359:9 *359:11 8 
4 *359:11 *359:13 514.827 
5 *359:13 *359:15 8 
6 *359:15 *359:17 3552.56 
7 *359:17 gpio_holdover[15] 1.86429 
*END

*D_NET *360 0.772377
*CONN
*P gpio_holdover[16] O
*I *874:gpio_holdover[16] O *D counter_gpio_config_example
*CAP
1 gpio_holdover[16] 0.158379
2 *874:gpio_holdover[16] 0.000805453
3 *360:15 0.158379
4 *360:13 0.125454
5 *360:11 0.125454
6 *360:9 0.00871994
7 *360:7 0.0095254
8 gpio_holdover[16] gpio_out[16] 0
9 *360:7 *395:7 0.000140426
10 *360:9 *663:9 0
11 *360:13 *543:17 0
12 *360:13 *665:28 0
13 *360:13 *750:9 0.000335252
14 gpio_dm2[16] gpio_holdover[16] 0
15 *143:13 *360:13 0.100477
16 *154:7 *360:7 0.000140426
17 *229:9 *360:9 0.0430666
18 *271:9 *360:9 0.0415006
19 *290:17 *360:13 0
20 *322:13 *360:13 0
*RES
1 *874:gpio_holdover[16] *360:7 10.0459 
2 *360:7 *360:9 556.531 
3 *360:9 *360:11 8 
4 *360:11 *360:13 418.742 
5 *360:13 *360:15 8 
6 *360:15 gpio_holdover[16] 3618.69 
*END

*D_NET *361 1.1431
*CONN
*P gpio_holdover[17] O
*I *874:gpio_holdover[17] O *D counter_gpio_config_example
*CAP
1 gpio_holdover[17] 0.00110044
2 *874:gpio_holdover[17] 0.0091844
3 *361:13 0.0898004
4 *361:11 0.0887
5 *361:9 0.110408
6 *361:7 0.119593
7 gpio_holdover[17] gpio_out[17] 0
8 *361:7 *413:7 0.0014296
9 *361:9 gpio_holdover[32] 0.000111122
10 *361:9 *365:9 0.316421
11 *361:9 *413:17 0.0438039
12 *361:9 *414:9 0
13 *361:9 *464:11 0
14 *361:13 gpio_inp_dis[20] 0.00198172
15 *361:13 *363:19 0
16 *361:13 *365:13 0.00356774
17 *361:13 *673:17 0.037176
18 *361:13 *676:9 0
19 gpio_dm2[17] gpio_holdover[17] 0
20 *96:13 *361:13 0.0825907
21 *123:7 *361:7 0.00043175
22 *159:9 *361:9 0.0019358
23 *274:13 *361:13 0.155463
24 *279:13 *361:13 0.0368075
25 *316:15 *361:13 0.0356213
26 *336:7 *361:7 0
27 *336:9 *361:9 0.00696817
*RES
1 *874:gpio_holdover[17] *361:7 30.2245 
2 *361:7 *361:9 4027.96 
3 *361:9 *361:11 8 
4 *361:11 *361:13 390.921 
5 *361:13 gpio_holdover[17] 32.0182 
*END

*D_NET *362 0.506505
*CONN
*P gpio_holdover[18] O
*I *874:gpio_holdover[18] O *D counter_gpio_config_example
*CAP
1 gpio_holdover[18] 0.177244
2 *874:gpio_holdover[18] 0.000164249
3 *362:11 0.177244
4 *362:9 0.0595957
5 *362:7 0.05976
6 gpio_holdover[18] gpio_out[18] 0
7 gpio_holdover[18] *714:21 0.0308763
8 *362:9 *815:21 0
9 gpio_dm2[18] gpio_holdover[18] 0
10 *169:11 *362:7 5.083e-05
11 *169:11 *362:9 0.000755461
12 *214:11 *362:7 4.4107e-05
13 *214:11 *362:9 0.000769739
*RES
1 *874:gpio_holdover[18] *362:7 0.662667 
2 *362:7 *362:9 173.55 
3 *362:9 *362:11 8 
4 *362:11 gpio_holdover[18] 4104.65 
*END

*D_NET *363 0.434336
*CONN
*P gpio_holdover[19] O
*I *874:gpio_holdover[19] O *D counter_gpio_config_example
*CAP
1 gpio_holdover[19] 0.00144319
2 *874:gpio_holdover[19] 0.000210702
3 *363:19 0.00751351
4 *363:13 0.169327
5 *363:11 0.163256
6 *363:9 0.0193294
7 *363:7 0.0195401
8 gpio_holdover[19] gpio_out[19] 0
9 *363:9 *390:11 0
10 *363:19 *538:13 0
11 gpio_dm2[19] gpio_holdover[19] 0
12 *172:7 *363:7 3.86115e-05
13 *172:7 *363:9 5.5178e-06
14 *172:9 *363:9 0.00515804
15 *213:11 *363:7 4.41293e-05
16 *213:11 *363:9 0.00105961
17 *308:13 *363:13 0.0474106
18 *361:13 *363:19 0
*RES
1 *874:gpio_holdover[19] *363:7 0.662667 
2 *363:7 *363:9 60.9784 
3 *363:9 *363:11 8 
4 *363:11 *363:13 3784.98 
5 *363:13 *363:19 33.5728 
6 *363:19 gpio_holdover[19] 31.0611 
*END

*D_NET *364 0.458147
*CONN
*P gpio_holdover[1] O
*I *874:gpio_holdover[1] O *D counter_gpio_config_example
*CAP
1 gpio_holdover[1] 5.56939e-05
2 *874:gpio_holdover[1] 0.000226735
3 *364:17 0.0774213
4 *364:15 0.0773656
5 *364:13 0.0240631
6 *364:11 0.0240631
7 *364:9 0.0391678
8 *364:7 0.0393945
9 gpio_analog_sel[1] *364:17 0.00115981
10 gpio_dm2[1] *364:17 0.00192523
11 *104:11 *364:7 2.49637e-05
12 *104:11 *364:9 0.000219631
13 *131:9 *364:17 0
14 *238:11 *364:7 3.43522e-05
15 *238:11 *364:9 0.000296757
16 *254:11 *364:9 0
17 *269:9 *364:9 0
18 *320:17 *364:17 0.172728
*RES
1 *874:gpio_holdover[1] *364:7 0.592994 
2 *364:7 *364:9 112.37 
3 *364:9 *364:11 8 
4 *364:11 *364:13 71.9003 
5 *364:13 *364:15 8 
6 *364:15 *364:17 329.153 
7 *364:17 gpio_holdover[1] 0.213733 
*END

*D_NET *365 0.852058
*CONN
*P gpio_holdover[20] O
*I *874:gpio_holdover[20] O *D counter_gpio_config_example
*CAP
1 gpio_holdover[20] 0.00106319
2 *874:gpio_holdover[20] 0.00745467
3 *365:13 0.025053
4 *365:11 0.0239898
5 *365:9 0.126495
6 *365:7 0.13395
7 gpio_holdover[20] gpio_out[20] 0
8 gpio_holdover[20] *717:13 0
9 *365:7 *414:7 0.00169099
10 *365:9 gpio_vtrip_sel[27] 0.000120707
11 *365:9 *413:17 0.0441668
12 *365:9 *414:9 0
13 *365:9 *810:21 0
14 *365:9 *816:19 0.000120707
15 *365:13 *366:13 0.00153082
16 gpio_analog_en[26] *365:9 0.000120707
17 gpio_analog_pol[30] *365:9 0.000120707
18 gpio_dm2[20] gpio_holdover[20] 0
19 *101:17 *365:13 0.0792766
20 *119:9 *365:9 0.00272901
21 *159:9 *365:9 0.000775793
22 *248:7 *365:7 0.00161194
23 *274:13 *365:13 0.0779185
24 *321:13 gpio_holdover[20] 0
25 *336:9 *365:9 0.00388127
26 *361:9 *365:9 0.316421
27 *361:13 *365:13 0.00356774
*RES
1 *874:gpio_holdover[20] *365:7 30.1387 
2 *365:7 *365:9 4399.11 
3 *365:9 *365:11 8 
4 *365:11 *365:13 164.577 
5 *365:13 gpio_holdover[20] 31.1379 
*END

*D_NET *366 0.749054
*CONN
*P gpio_holdover[21] O
*I *874:gpio_holdover[21] O *D counter_gpio_config_example
*CAP
1 gpio_holdover[21] 0.000997545
2 *874:gpio_holdover[21] 0.0086852
3 *366:13 0.029528
4 *366:11 0.0285304
5 *366:9 0.106119
6 *366:7 0.114804
7 gpio_holdover[21] gpio_out[21] 0
8 *366:9 *373:17 0.0311708
9 *366:9 *413:9 0.026332
10 *366:9 *810:21 0
11 *366:13 gpio_oeb[22] 0.000575259
12 gpio_dm2[21] gpio_holdover[21] 0
13 *101:17 *366:13 0.000962049
14 *157:9 *366:9 0.00214327
15 *161:9 *366:9 0.0026684
16 *183:21 *366:13 0.0113579
17 *184:21 *366:13 0.000105616
18 *189:13 *366:13 0.0524191
19 *206:9 *366:9 0.00216246
20 *207:7 *366:7 0
21 *248:9 *366:9 0.00289138
22 *272:21 *366:13 0.000151983
23 *280:9 *366:9 0.321123
24 *289:7 *366:7 0.00118365
25 *289:9 *366:9 0.00297994
26 *322:17 gpio_holdover[21] 0
27 *349:7 *366:7 0.000633545
28 *365:13 *366:13 0.00153082
*RES
1 *874:gpio_holdover[21] *366:7 28.9365 
2 *366:7 *366:9 4087.82 
3 *366:9 *366:11 8 
4 *366:11 *366:13 115.375 
5 *366:13 gpio_holdover[21] 29.025 
*END

*D_NET *367 0.4337
*CONN
*P gpio_holdover[22] O
*I *874:gpio_holdover[22] O *D counter_gpio_config_example
*CAP
1 gpio_holdover[22] 0.156507
2 *874:gpio_holdover[22] 0.00212332
3 *367:27 0.156507
4 *367:25 0.0111574
5 *367:23 0.0117274
6 *367:17 0.00197144
7 *367:15 0.00352471
8 gpio_holdover[22] gpio_out[22] 0
9 gpio_holdover[22] *768:5 0
10 gpio_holdover[22] *791:5 0.00175982
11 gpio_holdover[22] *835:13 0.00353919
12 *367:15 *423:11 0.000298264
13 *367:15 *705:41 0.000258035
14 *367:17 *410:13 0.00366794
15 *367:17 *705:41 0.000698032
16 *367:25 *544:17 0.0364469
17 *367:25 *743:17 0.000942056
18 gpio_dm2[22] gpio_holdover[22] 0
19 *104:13 *367:15 0.000750551
20 *104:13 *367:17 0.00170718
21 *104:13 *367:23 1.14351e-05
22 *104:27 *367:25 0.00271694
23 *106:13 *367:17 0
24 *106:13 *367:23 0
25 *114:13 *367:17 0.00214978
26 *114:13 *367:23 0.000263222
27 *117:13 *367:17 0.000381583
28 *142:13 *367:25 0
29 *147:21 *367:25 0.00208169
30 *235:17 *367:25 0.0321651
31 *278:21 *367:17 4.48106e-05
32 *331:7 *367:15 3.98964e-05
33 *331:9 *367:15 0.000258367
*RES
1 *874:gpio_holdover[22] *367:15 22.9858 
2 *367:15 *367:17 71.6093 
3 *367:17 *367:23 20.0557 
4 *367:23 *367:25 69.8656 
5 *367:25 *367:27 8 
6 *367:27 gpio_holdover[22] 3639.12 
*END

*D_NET *368 0.691754
*CONN
*P gpio_holdover[23] O
*I *874:gpio_holdover[23] O *D counter_gpio_config_example
*CAP
1 gpio_holdover[23] 0.00173306
2 *874:gpio_holdover[23] 0.000452315
3 *368:65 0.00494336
4 *368:63 0.0032103
5 *368:61 0.0392702
6 *368:59 0.0392702
7 *368:57 0.191113
8 *368:55 0.199486
9 *368:33 0.0166012
10 *368:13 0.0210113
11 *368:11 0.0132354
12 gpio_holdover[23] gpio_out[23] 0.00287059
13 *368:11 *551:7 5.15215e-05
14 *368:11 *551:9 6.83647e-05
15 *368:13 *378:13 0.00946817
16 *368:33 *378:13 0.0092325
17 *368:33 *378:19 0.000906829
18 *368:33 *546:13 0.000104065
19 *368:33 *556:13 0.00650071
20 *368:55 *378:19 0.00181109
21 *368:55 *378:21 0.00763105
22 *368:55 *546:13 0.00020813
23 *368:57 *370:13 0.0206799
24 *368:57 *378:21 0.0215567
25 *368:57 *546:13 0.0435783
26 *368:57 *549:13 0.0105136
27 *368:61 *453:13 0
28 *368:61 *762:17 0
29 *368:61 *805:25 0
30 gpio_dm2[23] gpio_holdover[23] 0
31 *94:11 *368:33 2.77108e-05
32 *104:27 *368:55 0.000125282
33 *122:193 *368:33 0.000366016
34 *160:17 *368:13 0.0074619
35 *160:17 *368:33 0.000644747
36 *160:17 *368:55 0.00323135
37 *160:17 *368:57 0.00347109
38 *165:7 *368:11 3.49028e-05
39 *165:9 *368:11 7.58245e-05
40 *171:9 *368:55 7.65779e-05
41 *172:9 *368:55 0.000137276
42 *195:9 *368:57 0
43 *200:13 *368:57 0.0102106
44 *237:9 *368:57 0
45 *293:11 *368:33 0.000188724
46 *294:31 *368:33 2.50324e-05
47 *324:17 *368:65 0
48 *334:13 *368:57 0.000168454
*RES
1 *874:gpio_holdover[23] *368:11 9.57733 
2 *368:11 *368:13 53.7936 
3 *368:13 *368:33 46.3296 
4 *368:33 *368:55 49.3125 
5 *368:55 *368:57 632.946 
6 *368:57 *368:59 8 
7 *368:59 *368:61 114.559 
8 *368:61 *368:63 8 
9 *368:63 *368:65 75.5657 
10 *368:65 gpio_holdover[23] 49.8489 
*END

*D_NET *369 0.770977
*CONN
*P gpio_holdover[24] O
*I *874:gpio_holdover[24] O *D counter_gpio_config_example
*CAP
1 gpio_holdover[24] 0.000435656
2 *874:gpio_holdover[24] 0.00238792
3 *369:15 0.0122231
4 *369:9 0.0822785
5 *369:7 0.072879
6 *369:7 *418:7 0.000345763
7 *369:9 *778:13 0.0182482
8 *369:15 *721:17 0
9 gpio_dm2[24] gpio_holdover[24] 0.000175175
10 gpio_dm2[24] *369:15 0
11 *93:17 *369:9 0
12 *99:9 *369:9 0
13 *105:17 *369:9 0.0147578
14 *194:9 *369:9 0.229749
15 *244:9 *369:9 0.0285986
16 *259:7 *369:7 0.000345763
17 *316:11 *369:9 0.308553
*RES
1 *874:gpio_holdover[24] *369:7 13.9957 
2 *369:7 *369:9 4254.73 
3 *369:9 *369:15 47.0539 
4 *369:15 gpio_holdover[24] 13.8765 
*END

*D_NET *370 0.663233
*CONN
*P gpio_holdover[25] O
*I *874:gpio_holdover[25] O *D counter_gpio_config_example
*CAP
1 gpio_holdover[25] 0.000767951
2 *874:gpio_holdover[25] 0.000627764
3 *370:17 0.0524191
4 *370:15 0.0516511
5 *370:13 0.0497921
6 *370:11 0.0504199
7 gpio_holdover[25] *546:21 0
8 *370:11 *533:11 6.75967e-05
9 *370:11 *771:19 6.76643e-05
10 *370:13 *378:13 0.000936585
11 *370:13 *378:21 0.00815241
12 *370:13 *546:13 0.235047
13 *370:13 *549:13 0.186751
14 *370:17 gpio_vtrip_sel[25] 0.00189679
15 *370:17 *722:17 0
16 *370:17 *796:17 0.00350044
17 gpio_dm2[25] gpio_holdover[25] 0.000246009
18 *176:11 *370:13 0.000111122
19 *355:7 *370:11 2.52435e-05
20 *355:9 *370:11 7.28343e-05
21 *368:57 *370:13 0.0206799
*RES
1 *874:gpio_holdover[25] *370:11 9.80819 
2 *370:11 *370:13 3072.24 
3 *370:13 *370:15 8 
4 *370:15 *370:17 150.323 
5 *370:17 gpio_holdover[25] 29.2508 
*END

*D_NET *371 0.579615
*CONN
*P gpio_holdover[26] O
*I *874:gpio_holdover[26] O *D counter_gpio_config_example
*CAP
1 gpio_holdover[26] 0.00189995
2 *874:gpio_holdover[26] 0.0121931
3 *371:9 0.277167
4 *371:7 0.287461
5 gpio_holdover[26] *723:9 0
6 *371:7 *439:7 0.000243608
7 gpio_dm2[26] gpio_holdover[26] 0.000203674
8 *93:7 *371:7 0.000343591
9 *195:13 gpio_holdover[26] 0.000102852
*RES
1 *874:gpio_holdover[26] *371:7 41.3443 
2 *371:7 *371:9 604.893 
3 *371:9 gpio_holdover[26] 12.5388 
*END

*D_NET *372 0.447101
*CONN
*P gpio_holdover[27] O
*I *874:gpio_holdover[27] O *D counter_gpio_config_example
*CAP
1 gpio_holdover[27] 0.00308318
2 *874:gpio_holdover[27] 0.00223177
3 *372:29 0.0536999
4 *372:27 0.0506168
5 *372:25 0.0946287
6 *372:23 0.0974225
7 *372:13 0.0105879
8 *372:11 0.0100259
9 gpio_holdover[27] gpio_out[27] 0.000371865
10 gpio_holdover[27] *724:17 0
11 *372:11 *556:11 0.00015709
12 *372:13 *738:21 0
13 *372:23 *410:19 0.000623281
14 *372:23 *545:18 2.67561e-05
15 *372:23 *705:29 2.50324e-05
16 *372:25 *545:18 0.0106987
17 *372:29 *724:17 0
18 gpio_analog_sel[27] gpio_holdover[27] 0
19 gpio_analog_sel[27] *372:29 0
20 gpio_dm2[27] gpio_holdover[27] 0
21 *103:13 *372:13 0.0110019
22 *110:6 *372:23 0.00046299
23 *110:6 *372:25 0.0671723
24 *176:13 *372:23 8.26899e-05
25 *205:17 *372:23 0.0028713
26 *237:9 *372:25 0.00321142
27 *238:13 *372:13 0.0225132
28 *239:11 *372:11 0.000420618
29 *318:9 *372:11 0
30 *330:13 *372:13 0.0051653
*RES
1 *874:gpio_holdover[27] *372:11 13.9136 
2 *372:11 *372:13 359.331 
3 *372:13 *372:23 23.4872 
4 *372:23 *372:25 384.033 
5 *372:25 *372:27 8 
6 *372:27 *372:29 142.423 
7 *372:29 gpio_holdover[27] 7.126 
*END

*D_NET *373 0.40229
*CONN
*P gpio_holdover[28] O
*I *874:gpio_holdover[28] O *D counter_gpio_config_example
*CAP
1 gpio_holdover[28] 0.00525592
2 *874:gpio_holdover[28] 0.00775337
3 *373:17 0.0765452
4 *373:15 0.0716341
5 *373:9 0.0288277
6 *373:7 0.0362362
7 *373:7 gpio_oeb[37] 0.00237662
8 *373:7 *434:7 4.30651e-05
9 *373:15 *467:15 0
10 *373:17 *413:17 0
11 gpio_analog_sel[28] gpio_holdover[28] 0
12 gpio_dm0[33] *373:15 0
13 gpio_dm1[33] *373:15 0.00038743
14 gpio_dm2[28] gpio_holdover[28] 0.000782478
15 *107:7 *373:7 0
16 *242:9 *373:17 0.0348251
17 *280:9 *373:17 0.0237648
18 *289:9 *373:17 0.006894
19 *307:17 *373:9 0.0629968
20 *314:7 *373:7 0.000816217
21 *329:27 gpio_holdover[28] 0.00698611
22 *354:17 *373:9 0.00499446
23 *366:9 *373:17 0.0311708
*RES
1 *874:gpio_holdover[28] *373:7 27.7344 
2 *373:7 *373:9 942.479 
3 *373:9 *373:15 17.1293 
4 *373:15 *373:17 274.613 
5 *373:17 gpio_holdover[28] 24.9111 
*END

*D_NET *374 0.538061
*CONN
*P gpio_holdover[29] O
*I *874:gpio_holdover[29] O *D counter_gpio_config_example
*CAP
1 gpio_holdover[29] 0.0102843
2 *874:gpio_holdover[29] 0.00532459
3 *374:9 0.0904964
4 *374:7 0.0855366
5 gpio_holdover[29] gpio_out[29] 0.000156417
6 gpio_holdover[29] *814:25 0
7 *374:7 *537:7 0
8 *374:9 *418:9 0
9 *374:9 *440:9 0.046628
10 gpio_dm2[29] gpio_holdover[29] 0.000638263
11 *107:9 *374:9 0.166302
12 *162:9 *374:9 0.0295182
13 *178:9 *374:9 0.00871112
14 *178:17 *374:9 0.0167122
15 *193:9 *374:9 0.00190798
16 *229:7 *374:7 0.000148989
17 *241:19 *374:9 0.0326921
18 *268:17 *374:9 0.0151817
19 *284:9 *374:9 0.000810383
20 *304:9 *374:9 0.0141359
21 *327:7 *374:7 0.000959455
22 *330:33 gpio_holdover[29] 7.95147e-06
23 *333:9 *374:9 0.0119087
*RES
1 *874:gpio_holdover[29] *374:7 21.4232 
2 *374:7 *374:9 429.091 
3 *374:9 gpio_holdover[29] 33.4679 
*END

*D_NET *375 0.591025
*CONN
*P gpio_holdover[2] O
*I *874:gpio_holdover[2] O *D counter_gpio_config_example
*CAP
1 gpio_holdover[2] 0.00292906
2 *874:gpio_holdover[2] 0.07003
3 *375:19 0.0989506
4 *375:17 0.110434
5 *375:13 0.0844424
6 gpio_holdover[2] gpio_out[2] 0.000239872
7 gpio_holdover[2] *727:29 0.000888451
8 *375:17 *400:13 0
9 *375:17 *540:13 0
10 *375:17 *717:13 0.00257862
11 *375:19 *727:29 0.209452
12 gpio_dm2[2] gpio_holdover[2] 0.00192265
13 gpio_dm2[2] *375:19 0
14 *126:11 *375:13 0.00010663
15 *222:9 *375:13 0.00203232
16 *252:40 *375:13 0.000260856
17 *298:16 *375:13 0.00675761
*RES
1 *874:gpio_holdover[2] *375:13 27.3362 
2 *375:13 *375:17 48.8016 
3 *375:17 *375:19 403.973 
4 *375:19 gpio_holdover[2] 8.30387 
*END

*D_NET *376 0.448938
*CONN
*P gpio_holdover[30] O
*I *874:gpio_holdover[30] O *D counter_gpio_config_example
*CAP
1 gpio_holdover[30] 0.00158675
2 *874:gpio_holdover[30] 0.00298403
3 *376:17 0.0551972
4 *376:15 0.0536104
5 *376:13 0.0693081
6 *376:11 0.0722921
7 gpio_holdover[30] gpio_out[30] 0.000475147
8 gpio_holdover[30] *462:15 0.000224793
9 *376:11 *683:17 0.000458429
10 *376:17 gpio_out[30] 0.0178281
11 gpio_dm2[30] gpio_holdover[30] 0
12 *128:17 *376:13 0.0350214
13 *177:11 *376:11 0.000785017
14 *239:13 *376:13 0.00021657
15 *239:21 *376:13 0.124583
16 *243:13 *376:13 0.00667827
17 *281:13 *376:13 0.000322604
18 *286:13 *376:13 0
19 *312:7 *376:11 5.083e-05
20 *312:9 *376:11 0.000653336
21 *357:17 *376:13 0.00666143
*RES
1 *874:gpio_holdover[30] *376:11 17.8205 
2 *376:11 *376:13 342.776 
3 *376:13 *376:15 8 
4 *376:15 *376:17 155.518 
5 *376:17 gpio_holdover[30] 22.6516 
*END

*D_NET *377 0.39441
*CONN
*P gpio_holdover[31] O
*I *874:gpio_holdover[31] O *D counter_gpio_config_example
*CAP
1 gpio_holdover[31] 0.0105982
2 *874:gpio_holdover[31] 0.00273046
3 *377:17 0.0549389
4 *377:15 0.0444981
5 *377:9 0.0132649
6 *377:7 0.0158379
7 gpio_holdover[31] gpio_out[31] 0.000159864
8 *377:7 *417:7 0.000526449
9 *377:9 *471:11 0.015379
10 *377:15 *822:6 7.23372e-05
11 gpio_dm2[31] gpio_holdover[31] 0.00995296
12 *105:17 *377:17 0
13 *115:9 *377:9 0.00624214
14 *115:9 *377:17 0.00945682
15 *117:23 *377:17 0.000386112
16 *123:9 *377:9 0
17 *154:9 *377:9 0.0403149
18 *154:17 *377:17 0.0913178
19 *174:9 *377:17 5.70471e-05
20 *204:9 *377:9 0.00168389
21 *204:9 *377:17 0.0106112
22 *205:17 *377:15 0.000259171
23 *241:17 gpio_holdover[31] 4.54232e-05
24 *283:9 *377:9 0.0659215
25 *309:9 *377:9 0.000121281
26 *342:13 *377:7 3.38115e-05
27 *354:13 *377:7 0
*RES
1 *874:gpio_holdover[31] *377:7 15.112 
2 *377:7 *377:9 898.109 
3 *377:9 *377:15 16.5283 
4 *377:15 *377:17 224.22 
5 *377:17 gpio_holdover[31] 38.3959 
*END

*D_NET *378 0.371731
*CONN
*P gpio_holdover[32] O
*I *874:gpio_holdover[32] O *D counter_gpio_config_example
*CAP
1 gpio_holdover[32] 0.00649975
2 *874:gpio_holdover[32] 0.000589719
3 *378:25 0.0562114
4 *378:23 0.0497117
5 *378:21 0.026363
6 *378:19 0.0293927
7 *378:13 0.0298739
8 *378:11 0.0274339
9 gpio_holdover[32] gpio_out[32] 0
10 gpio_holdover[32] *413:17 0.000430409
11 *378:11 *555:11 0.000137486
12 *378:13 *549:13 0.00135285
13 *378:13 *556:13 0.00417042
14 *378:19 *546:13 0.000104065
15 *378:19 *556:13 0.000365242
16 *378:21 *422:13 0.00541505
17 *378:21 *546:13 0.0110116
18 *378:21 *549:13 0.00836054
19 *160:17 *378:13 0
20 *160:17 *378:19 0.000171077
21 *176:11 *378:21 0.000300098
22 *275:7 *378:11 4.21669e-05
23 *275:9 *378:11 0.000100094
24 *334:13 *378:19 0.000386156
25 *334:13 *378:21 0.0519482
26 *334:17 gpio_holdover[32] 0.00155345
27 *334:17 *378:25 0
28 *361:9 gpio_holdover[32] 0.000111122
29 *368:13 *378:13 0.00946817
30 *368:33 *378:13 0.0092325
31 *368:33 *378:19 0.000906829
32 *368:55 *378:19 0.00181109
33 *368:55 *378:21 0.00763105
34 *368:57 *378:21 0.0215567
35 *370:13 *378:13 0.000936585
36 *370:13 *378:21 0.00815241
*RES
1 *874:gpio_holdover[32] *378:11 9.9208 
2 *378:11 *378:13 70.0149 
3 *378:13 *378:19 9.52747 
4 *378:19 *378:21 127.602 
5 *378:21 *378:23 8 
6 *378:23 *378:25 135.468 
7 *378:25 gpio_holdover[32] 16.6721 
*END

*D_NET *379 0.209874
*CONN
*P gpio_holdover[33] O
*I *874:gpio_holdover[33] O *D counter_gpio_config_example
*CAP
1 gpio_holdover[33] 0.00793404
2 *874:gpio_holdover[33] 0.0070198
3 *379:13 0.0434738
4 *379:11 0.0425596
5 gpio_holdover[33] gpio_out[33] 0.00495937
6 gpio_holdover[33] *462:15 0.000115147
7 *379:11 *396:15 4.8098e-05
8 *379:11 *421:7 0.000720637
9 *379:13 *396:15 6.57607e-05
10 *379:13 *396:17 0.00997327
11 gpio_analog_sel[33] gpio_holdover[33] 0
12 gpio_dm2[33] gpio_holdover[33] 0
13 *150:9 *379:13 0
14 *152:9 *379:13 0.021972
15 *152:15 gpio_holdover[33] 0
16 *201:9 *379:13 0.0614479
17 *203:17 gpio_holdover[33] 0
18 *220:17 *379:13 0.00827371
19 *316:9 *379:11 0
20 *335:17 gpio_holdover[33] 0.00129524
21 *350:13 *379:11 0
22 *352:15 *379:11 1.59598e-05
*RES
1 *874:gpio_holdover[33] *379:11 24.2381 
2 *379:11 *379:13 149.71 
3 *379:13 gpio_holdover[33] 47.6054 
*END

*D_NET *380 0.143814
*CONN
*P gpio_holdover[34] O
*I *874:gpio_holdover[34] O *D counter_gpio_config_example
*CAP
1 gpio_holdover[34] 8.68242e-05
2 *874:gpio_holdover[34] 0.00137794
3 *380:17 0.0550147
4 *380:15 0.0549278
5 *380:13 0.00641428
6 *380:11 0.00779222
7 *380:11 *410:11 0.00016093
8 *380:13 *562:13 0
9 *380:17 gpio_out[34] 0
10 *380:17 *535:13 0
11 *380:17 *773:11 0.0014808
12 *380:17 *788:9 0.005395
13 gpio_analog_sel[34] *380:17 0
14 gpio_dm2[34] *380:17 0.00162325
15 *146:13 *380:13 0.00407947
16 *283:15 *380:17 0
17 *292:13 *380:13 0.00530384
18 *321:11 *380:11 0.000156847
*RES
1 *874:gpio_holdover[34] *380:11 11.3376 
2 *380:11 *380:13 188.894 
3 *380:13 *380:15 8 
4 *380:15 *380:17 152.313 
5 *380:17 gpio_holdover[34] 0.3332 
*END

*D_NET *381 0.214886
*CONN
*P gpio_holdover[35] O
*I *874:gpio_holdover[35] O *D counter_gpio_config_example
*CAP
1 gpio_holdover[35] 0.000347836
2 *874:gpio_holdover[35] 0.000932208
3 *381:21 0.002028
4 *381:19 0.00168016
5 *381:17 0.0395198
6 *381:15 0.0395198
7 *381:13 0.00502526
8 *381:11 0.00595747
9 gpio_holdover[35] gpio_out[35] 0.00022957
10 *381:13 *556:13 0.000129945
11 *381:13 *557:13 0.00246321
12 *381:17 *391:19 4.51815e-05
13 *381:17 *427:17 0.00407918
14 *381:17 *542:13 0.0003309
15 *381:17 *742:9 0.00778678
16 *381:17 *829:16 0.00040569
17 *381:21 *425:21 0.00710684
18 *381:21 *427:21 1.63351e-05
19 *381:21 *726:21 0
20 gpio_dm2[35] gpio_holdover[35] 0
21 *89:7 *381:11 3.41368e-05
22 *89:9 *381:11 0.000129681
23 *104:27 *381:17 0.000330785
24 *113:13 *381:13 0
25 *117:17 *381:17 0.0326445
26 *154:15 *381:17 0.000151053
27 *190:21 *381:17 0.0092822
28 *215:31 *381:17 0.00333416
29 *290:13 *381:13 0.0246827
30 *293:13 *381:13 0.0195205
31 *297:7 *381:11 3.43522e-05
32 *297:9 *381:11 9.12972e-05
33 *337:21 *381:21 0.00688538
34 *338:17 *381:17 5.77181e-06
35 *338:21 *381:21 0.000154967
*RES
1 *874:gpio_holdover[35] *381:11 10.4789 
2 *381:11 *381:13 319.186 
3 *381:13 *381:15 8 
4 *381:15 *381:17 150.58 
5 *381:17 *381:19 8 
6 *381:19 *381:21 98.745 
7 *381:21 gpio_holdover[35] 8.9296 
*END

*D_NET *382 0.0940455
*CONN
*P gpio_holdover[36] O
*I *874:gpio_holdover[36] O *D counter_gpio_config_example
*CAP
1 gpio_holdover[36] 0.00034314
2 *874:gpio_holdover[36] 0.00501485
3 *382:24 1.65103e-06
4 *382:17 0.00189158
5 *382:15 0.0106403
6 *382:9 0.0331659
7 *382:7 0.0290905
8 gpio_holdover[36] gpio_out[36] 0.000520844
9 *382:7 *383:7 0.00129482
10 *382:7 *417:7 0.00132418
11 *382:9 *383:9 0.00299013
12 *382:9 *396:17 0
13 *382:17 *427:21 0.00399436
14 *382:17 *726:21 0
15 *382:24 gpio_out[36] 3.08663e-05
16 gpio_dm2[36] gpio_holdover[36] 7.20529e-05
17 *220:17 *382:9 0
18 *272:9 *382:9 0
19 *288:9 *382:9 0.00367035
20 *306:9 *382:9 0
*RES
1 *874:gpio_holdover[36] *382:7 24.2997 
2 *382:7 *382:9 543.854 
3 *382:9 *382:15 36.2347 
4 *382:15 *382:17 51.5579 
5 *382:17 gpio_holdover[36] 9.10133 
6 gpio_holdover[36] *382:24 0.0746667 
*END

*D_NET *383 0.0990928
*CONN
*P gpio_holdover[37] O
*I *874:gpio_holdover[37] O *D counter_gpio_config_example
*CAP
1 gpio_holdover[37] 0.00767864
2 *874:gpio_holdover[37] 0.00550392
3 *383:9 0.0231653
4 *383:7 0.0209906
5 gpio_holdover[37] gpio_out[37] 0.0083614
6 gpio_dm2[37] gpio_holdover[37] 7.20775e-05
7 *150:9 *383:9 0
8 *155:7 *383:7 0.000110251
9 *201:9 *383:9 0.00665298
10 *220:9 *383:9 0.0212307
11 *220:17 *383:9 0.000811942
12 *288:9 *383:9 0.000230129
13 *328:7 *383:7 0
14 *382:7 *383:7 0.00129482
15 *382:9 *383:9 0.00299013
*RES
1 *874:gpio_holdover[37] *383:7 23.9992 
2 *383:7 *383:9 67.2037 
3 *383:9 gpio_holdover[37] 30.1601 
*END

*D_NET *384 0.21168
*CONN
*P gpio_holdover[38] O
*I *874:gpio_holdover[38] O *D counter_gpio_config_example
*CAP
1 gpio_holdover[38] 0.000120401
2 *874:gpio_holdover[38] 0.000625653
3 *384:21 0.0040637
4 *384:19 0.00407543
5 *384:17 0.00123521
6 *384:13 0.0364839
7 *384:11 0.0353808
8 *384:9 0.0142598
9 *384:7 0.0148854
10 *384:9 *434:9 0
11 *384:9 *461:19 1.81615e-05
12 *384:13 *475:11 0.00759964
13 *384:13 *560:15 0
14 *384:21 gpio_out[38] 0
15 gpio_dm2[38] *384:21 0
16 *155:9 *384:9 0.00159097
17 *164:9 *384:9 0.0156181
18 *208:40 *384:17 0.00308537
19 *208:40 *384:21 0
20 *212:9 *384:9 0.00197709
21 *219:7 *384:7 9.31556e-05
22 *223:9 *384:9 0.0462918
23 *228:9 *384:9 0.0077167
24 *260:7 *384:7 0.000128505
25 *264:9 *384:9 0.0164303
26 *302:9 *384:9 0
*RES
1 *874:gpio_holdover[38] *384:7 9.7024 
2 *384:7 *384:9 745.984 
3 *384:9 *384:11 8 
4 *384:11 *384:13 108.506 
5 *384:13 *384:17 47.3986 
6 *384:17 *384:19 3.00357 
7 *384:19 *384:21 85.7571 
8 *384:21 gpio_holdover[38] 2.91036 
*END

*D_NET *385 0.162941
*CONN
*P gpio_holdover[39] O
*I *874:gpio_holdover[39] O *D counter_gpio_config_example
*CAP
1 gpio_holdover[39] 0.00134397
2 *874:gpio_holdover[39] 0.000183157
3 *385:13 0.0185194
4 *385:11 0.0171755
5 *385:9 0.032198
6 *385:7 0.0323812
7 gpio_holdover[39] *737:17 0
8 *385:7 *546:11 4.1504e-05
9 *385:9 *546:11 9.33066e-05
10 *385:13 *737:13 0.00583217
11 *385:13 *737:17 0
12 *170:17 *385:9 0
13 *221:11 *385:7 4.62063e-05
14 *221:11 *385:9 0.00334231
15 *341:13 gpio_holdover[39] 0.00135999
16 *341:13 *385:13 0.0504246
*RES
1 *874:gpio_holdover[39] *385:7 0.662667 
2 *385:7 *385:9 96.5272 
3 *385:9 *385:11 8 
4 *385:11 *385:13 645.105 
5 *385:13 gpio_holdover[39] 38.9946 
*END

*D_NET *386 0.336425
*CONN
*P gpio_holdover[3] O
*I *874:gpio_holdover[3] O *D counter_gpio_config_example
*CAP
1 gpio_holdover[3] 0.00488883
2 *874:gpio_holdover[3] 0.000193473
3 *386:13 0.0126592
4 *386:9 0.151652
5 *386:7 0.144075
6 gpio_holdover[3] gpio_out[3] 0.000544571
7 gpio_holdover[3] *738:25 0.00543904
8 gpio_dm2[3] gpio_holdover[3] 0
9 *181:9 *386:9 0
10 *231:7 *386:7 0
11 *231:9 *386:9 0
12 *277:11 *386:7 3.37536e-05
13 *277:11 *386:9 0.00240185
14 *331:13 *386:13 0.0145361
*RES
1 *874:gpio_holdover[3] *386:7 0.662667 
2 *386:7 *386:9 426.985 
3 *386:9 *386:13 43.2165 
4 *386:13 gpio_holdover[3] 22.7812 
*END

*D_NET *387 0.167114
*CONN
*P gpio_holdover[40] O
*I *874:gpio_holdover[40] O *D counter_gpio_config_example
*CAP
1 gpio_holdover[40] 6.29857e-05
2 *874:gpio_holdover[40] 0.000183174
3 *387:13 0.0309688
4 *387:11 0.0309058
5 *387:9 0.0435573
6 *387:7 0.0437405
7 *387:13 gpio_out[40] 0
8 gpio_dm2[40] *387:13 0
9 *287:7 *387:7 3.14503e-05
10 *287:9 *387:7 4.44857e-06
11 *287:9 *387:9 0.00460598
12 *348:7 *387:7 4.21669e-05
13 *348:7 *387:9 6.73098e-06
14 *348:9 *387:9 0.0130042
*RES
1 *874:gpio_holdover[40] *387:7 0.662667 
2 *387:7 *387:9 147.961 
3 *387:9 *387:11 8 
4 *387:11 *387:13 701.821 
5 *387:13 gpio_holdover[40] 1.5225 
*END

*D_NET *388 0.286256
*CONN
*P gpio_holdover[41] O
*I *874:gpio_holdover[41] O *D counter_gpio_config_example
*CAP
1 gpio_holdover[41] 0.00011526
2 *874:gpio_holdover[41] 0.00800535
3 *388:25 0.00401153
4 *388:23 0.0040497
5 *388:21 0.00533865
6 *388:19 0.00518522
7 *388:17 0.0464439
8 *388:15 0.0464439
9 *388:13 0.0435444
10 *388:11 0.0515497
11 *388:11 *539:7 2.82839e-05
12 *388:11 *539:9 0.00127703
13 *388:13 *398:13 0.00173453
14 *388:17 *477:11 0
15 *388:17 *695:14 0.067223
16 *388:25 *740:22 0
17 gpio_dm2[41] *388:25 0
18 *308:7 *388:11 3.14433e-05
19 *308:9 *388:11 0.00127388
*RES
1 *874:gpio_holdover[41] *388:11 29.7131 
2 *388:11 *388:13 980.511 
3 *388:13 *388:15 8 
4 *388:15 *388:17 177.285 
5 *388:17 *388:19 8 
6 *388:19 *388:21 118.279 
7 *388:21 *388:23 3.48 
8 *388:23 *388:25 85.7571 
9 *388:25 gpio_holdover[41] 2.78607 
*END

*D_NET *389 0.43932
*CONN
*P gpio_holdover[42] O
*I *874:gpio_holdover[42] O *D counter_gpio_config_example
*CAP
1 gpio_holdover[42] 0.000108404
2 *874:gpio_holdover[42] 0.00026681
3 *389:21 0.00396544
4 *389:19 0.00394778
5 *389:17 0.00603032
6 *389:15 0.00593957
7 *389:13 0.0844617
8 *389:11 0.0844617
9 *389:9 0.0052854
10 *389:7 0.00555221
11 *389:7 *391:7 3.69973e-05
12 *389:13 *564:10 0
13 *389:13 *711:17 0.0315957
14 *389:13 *714:19 0.000245825
15 *389:13 *715:9 0.0694726
16 *389:13 *717:9 0.0466351
17 *389:13 *756:9 0.0513926
18 *389:13 *832:9 0
19 *389:13 *833:9 0.000311962
20 gpio_dm2[42] *389:21 0
21 *125:7 *389:7 3.69973e-05
22 *139:9 *389:9 0.00247577
23 *141:9 *389:9 0.00401505
24 *296:9 *389:9 0.00418447
25 *301:9 *389:9 0.00223746
26 *340:9 *389:9 0.00138869
27 *342:13 *389:9 0.000259673
28 *344:19 *389:9 0.024168
29 *347:9 *389:9 0.000844085
*RES
1 *874:gpio_holdover[42] *389:7 8.672 
2 *389:7 *389:9 311.439 
3 *389:9 *389:11 8 
4 *389:11 *389:13 362.499 
5 *389:13 *389:15 8 
6 *389:15 *389:17 132.364 
7 *389:17 *389:19 2.05071 
8 *389:19 *389:21 85.7571 
9 *389:21 gpio_holdover[42] 2.62036 
*END

*D_NET *390 0.335938
*CONN
*P gpio_holdover[43] O
*I *874:gpio_holdover[43] O *D counter_gpio_config_example
*CAP
1 gpio_holdover[43] 0.000101548
2 *874:gpio_holdover[43] 0.00877294
3 *390:21 0.00594941
4 *390:19 0.00584786
5 *390:17 0.0878369
6 *390:15 0.0878369
7 *390:13 0.0392578
8 *390:11 0.0480308
9 *390:13 *409:13 0.0104048
10 *390:17 *475:11 0
11 gpio_dm2[43] *390:21 0
12 *130:13 *390:13 0.00292329
13 *187:13 *390:13 0.0046656
14 *213:11 *390:11 0.000894571
15 *213:17 *390:17 0
16 *253:17 *390:17 0.0319103
17 *257:7 *390:11 2.79086e-05
18 *257:9 *390:11 0.00147731
19 *258:17 *390:17 0
20 *363:9 *390:11 0
*RES
1 *874:gpio_holdover[43] *390:11 32.4608 
2 *390:11 *390:13 981.919 
3 *390:13 *390:15 8 
4 *390:15 *390:17 277.491 
5 *390:17 *390:19 8 
6 *390:19 *390:21 132.054 
7 *390:21 gpio_holdover[43] 2.45464 
*END

*D_NET *391 0.612218
*CONN
*P gpio_holdover[4] O
*I *874:gpio_holdover[4] O *D counter_gpio_config_example
*CAP
1 gpio_holdover[4] 0.000370853
2 *874:gpio_holdover[4] 0.000386359
3 *391:21 0.0599582
4 *391:19 0.0596511
5 *391:9 0.0336167
6 *391:7 0.0339393
7 gpio_holdover[4] *743:17 0
8 *391:9 *434:9 0.000702128
9 *391:9 *532:19 0.00473971
10 *391:21 *427:17 0.00322414
11 gpio_analog_sel[4] gpio_holdover[4] 6.15719e-05
12 gpio_dm2[4] gpio_holdover[4] 4.66782e-05
13 *103:17 *391:21 0
14 *117:17 *391:19 4.51815e-05
15 *117:17 *391:21 0.000110155
16 *122:77 *391:9 0.000146202
17 *129:9 *391:9 0.000147317
18 *142:9 *391:9 0.00543538
19 *142:9 *391:19 7.70197e-05
20 *143:9 *391:9 0.00498171
21 *143:9 *391:19 7.23298e-05
22 *148:17 *391:21 0.059071
23 *190:9 *391:9 0.0052949
24 *191:7 *391:7 4.4977e-05
25 *215:35 *391:21 0.134455
26 *234:17 *391:21 0.00673179
27 *266:9 *391:9 0.0160793
28 *302:9 *391:9 0.00127194
29 *344:19 *391:9 0.000147249
30 *347:9 *391:9 0.0556124
31 *347:21 *391:21 0.125714
32 *381:17 *391:19 4.51815e-05
33 *389:7 *391:7 3.69973e-05
*RES
1 *874:gpio_holdover[4] *391:7 8.88667 
2 *391:7 *391:9 138.033 
3 *391:9 *391:19 32.1243 
4 *391:19 *391:21 3073.11 
5 *391:21 gpio_holdover[4] 26.3993 
*END

*D_NET *392 0.533805
*CONN
*P gpio_holdover[5] O
*I *874:gpio_holdover[5] O *D counter_gpio_config_example
*CAP
1 gpio_holdover[5] 0.00144658
2 *874:gpio_holdover[5] 0.00479532
3 *392:17 0.193346
4 *392:15 0.191899
5 *392:13 0.0519239
6 *392:11 0.0567192
7 gpio_holdover[5] gpio_out[5] 0.000236381
8 *392:11 *393:7 0.000334022
9 *392:11 *428:9 0
10 *392:11 *569:19 0.000297712
11 *392:13 *426:9 0.00339743
12 gpio_dm2[5] gpio_holdover[5] 0.00191955
13 gpio_dm2[5] *392:17 0.00299205
14 *93:17 *392:13 0.00187538
15 *105:7 *392:11 0
16 *127:9 *392:13 0.016808
17 *133:9 *392:11 0.000893681
18 *133:9 *392:13 0.00492144
19 *216:17 *392:17 0
20 *244:9 *392:13 0
*RES
1 *874:gpio_holdover[5] *392:11 20.3443 
2 *392:11 *392:13 168.806 
3 *392:13 *392:15 8 
4 *392:15 *392:17 554.969 
5 *392:17 gpio_holdover[5] 21.8684 
*END

*D_NET *393 0.718083
*CONN
*P gpio_holdover[6] O
*I *874:gpio_holdover[6] O *D counter_gpio_config_example
*CAP
1 gpio_holdover[6] 0.000100444
2 *874:gpio_holdover[6] 0.00642303
3 *393:13 0.150408
4 *393:11 0.150307
5 *393:9 0.0371853
6 *393:7 0.0436083
7 *393:7 *569:19 0
8 *393:9 *735:13 0
9 *393:13 gpio_out[6] 0.000777103
10 *393:13 *745:9 0.245708
11 gpio_dm2[6] *393:13 0.000490246
12 *161:7 *393:7 0
13 *217:13 *393:13 0
14 *219:9 *393:9 0.0691792
15 *272:7 *393:7 0.00117166
16 *306:9 *393:9 0.0123916
17 *349:13 *393:13 0
18 *392:11 *393:7 0.000334022
*RES
1 *874:gpio_holdover[6] *393:7 25.1584 
2 *393:7 *393:9 1215.04 
3 *393:9 *393:11 8 
4 *393:11 *393:13 570.739 
5 *393:13 gpio_holdover[6] 0.385467 
*END

*D_NET *394 0.625104
*CONN
*P gpio_holdover[7] O
*I *874:gpio_holdover[7] O *D counter_gpio_config_example
*CAP
1 gpio_holdover[7] 0.00335192
2 *874:gpio_holdover[7] 0.000180045
3 *394:17 0.0713238
4 *394:15 0.0679718
5 *394:13 0.110993
6 *394:11 0.110993
7 *394:9 0.0425851
8 *394:7 0.0427652
9 gpio_holdover[7] gpio_out[7] 0
10 *394:7 *557:11 3.9421e-05
11 *394:9 *463:7 0.0163597
12 *394:9 *557:11 8.25554e-05
13 *394:17 gpio_out[7] 0
14 *312:13 *394:13 0
15 *345:7 *394:7 3.37536e-05
16 *345:7 *394:9 5.66735e-06
17 *345:9 *394:9 0.010142
18 *350:19 gpio_holdover[7] 0.00108909
19 *350:19 *394:17 0.147188
*RES
1 *874:gpio_holdover[7] *394:7 0.662667 
2 *394:7 *394:9 149.807 
3 *394:9 *394:11 8 
4 *394:11 *394:13 343.411 
5 *394:13 *394:15 8 
6 *394:15 *394:17 284.103 
7 *394:17 gpio_holdover[7] 8.48307 
*END

*D_NET *395 0.866747
*CONN
*P gpio_holdover[8] O
*I *874:gpio_holdover[8] O *D counter_gpio_config_example
*CAP
1 gpio_holdover[8] 0.00126014
2 *874:gpio_holdover[8] 0.00735602
3 *395:13 0.144031
4 *395:11 0.142771
5 *395:9 0.0595407
6 *395:7 0.0668967
7 gpio_holdover[8] gpio_out[8] 0.000669536
8 *395:9 *823:10 0
9 *395:13 *747:9 0.271499
10 gpio_dm2[8] gpio_holdover[8] 0.00192596
11 gpio_dm2[8] *395:13 1.73354e-05
12 *154:7 *395:7 0
13 *219:13 *395:13 0
14 *279:9 *395:9 0.168918
15 *295:24 *395:7 0.000862675
16 *333:7 *395:7 0.000857865
17 *360:7 *395:7 0.000140426
*RES
1 *874:gpio_holdover[8] *395:7 26.3605 
2 *395:7 *395:9 2151.03 
3 *395:9 *395:11 8 
4 *395:11 *395:13 568.15 
5 *395:13 gpio_holdover[8] 22.274 
*END

*D_NET *396 0.817977
*CONN
*P gpio_holdover[9] O
*I *874:gpio_holdover[9] O *D counter_gpio_config_example
*CAP
1 gpio_holdover[9] 0.188481
2 *874:gpio_holdover[9] 0.00796671
3 *396:19 0.188481
4 *396:17 0.0529959
5 *396:15 0.0609626
6 gpio_holdover[9] *748:17 0.0388025
7 gpio_holdover[9] *836:17 0
8 *396:15 *559:9 0.000881003
9 gpio_dm2[9] gpio_holdover[9] 0
10 *150:9 *396:15 0.000245254
11 *151:7 *396:15 0.000449643
12 *152:9 *396:17 0.0565002
13 *152:17 *396:17 0.00575733
14 *201:9 *396:15 0.00122386
15 *201:9 *396:17 0.017981
16 *220:17 *396:15 0.000416294
17 *220:17 *396:17 0.183024
18 *220:21 gpio_holdover[9] 0
19 *272:9 *396:17 0.000276768
20 *288:9 *396:17 0.00344429
21 *352:21 gpio_holdover[9] 0
22 *379:11 *396:15 4.8098e-05
23 *379:13 *396:15 6.57607e-05
24 *379:13 *396:17 0.00997327
25 *382:9 *396:17 0
*RES
1 *874:gpio_holdover[9] *396:15 45.6944 
2 *396:15 *396:17 2337.67 
3 *396:17 *396:19 8 
4 *396:19 gpio_holdover[9] 569.451 
*END

*D_NET *397 0.509196
*CONN
*P gpio_ib_mode_sel[0] O
*I *874:gpio_ib_mode_sel[0] O *D counter_gpio_config_example
*CAP
1 gpio_ib_mode_sel[0] 0.00320017
2 *874:gpio_ib_mode_sel[0] 0.000257595
3 *397:17 0.0797077
4 *397:15 0.0765075
5 *397:13 0.0489693
6 *397:11 0.0489693
7 *397:9 0.0370085
8 *397:7 0.0372661
9 gpio_ib_mode_sel[0] *661:29 0.00183365
10 gpio_ib_mode_sel[0] *793:19 0
11 *397:7 *423:11 2.82839e-05
12 *397:9 *423:11 0.000435376
13 *397:17 *661:29 0.175013
14 *397:17 *793:19 0
15 *113:11 *397:7 0
16 *113:11 *397:9 0
17 *346:17 *397:9 0
*RES
1 *874:gpio_ib_mode_sel[0] *397:7 0.662667 
2 *397:7 *397:9 104.642 
3 *397:9 *397:11 8 
4 *397:11 *397:13 147.933 
5 *397:13 *397:15 8 
6 *397:15 *397:17 329.269 
7 *397:17 gpio_ib_mode_sel[0] 8.33187 
*END

*D_NET *398 0.719148
*CONN
*P gpio_ib_mode_sel[10] O
*I *874:gpio_ib_mode_sel[10] O *D counter_gpio_config_example
*CAP
1 gpio_ib_mode_sel[10] 5.13163e-05
2 *874:gpio_ib_mode_sel[10] 0.00808914
3 *398:17 0.0992715
4 *398:15 0.0992202
5 *398:13 0.139069
6 *398:11 0.147158
7 *398:11 *826:22 0.00101776
8 *398:13 *401:13 0
9 *398:17 gpio_oeb[10] 0.00192596
10 *398:17 *662:31 0.221192
11 *240:11 *398:11 0.000393302
12 *253:11 *398:11 0
13 *294:11 *398:11 2.55724e-05
14 *388:13 *398:13 0.00173453
*RES
1 *874:gpio_ib_mode_sel[10] *398:11 29.6701 
2 *398:11 *398:13 418.301 
3 *398:13 *398:15 8 
4 *398:15 *398:17 420.515 
5 *398:17 gpio_ib_mode_sel[10] 0.196933 
*END

*D_NET *399 0.633681
*CONN
*P gpio_ib_mode_sel[11] O
*I *874:gpio_ib_mode_sel[11] O *D counter_gpio_config_example
*CAP
1 gpio_ib_mode_sel[11] 0.00311752
2 *874:gpio_ib_mode_sel[11] 0.000194567
3 *399:17 0.0158689
4 *399:15 0.0127513
5 *399:13 0.153742
6 *399:11 0.153742
7 *399:9 0.109361
8 *399:7 0.109555
9 gpio_ib_mode_sel[11] *663:13 0
10 gpio_ib_mode_sel[11] *795:9 0.00183984
11 *399:17 *663:13 0
12 *399:17 *795:9 0.0270331
13 *136:7 *399:7 4.03797e-05
14 *136:7 *399:9 5.5178e-06
15 *136:9 *399:9 0.0338353
16 *167:7 *399:7 4.03797e-05
17 *167:9 *399:7 5.5178e-06
18 *167:9 *399:9 0.0125483
*RES
1 *874:gpio_ib_mode_sel[11] *399:7 0.662667 
2 *399:7 *399:9 381.647 
3 *399:9 *399:11 8 
4 *399:11 *399:13 480.499 
5 *399:13 *399:15 8 
6 *399:15 *399:17 52.2629 
7 *399:17 gpio_ib_mode_sel[11] 8.33 
*END

*D_NET *400 0.774271
*CONN
*P gpio_ib_mode_sel[12] O
*I *874:gpio_ib_mode_sel[12] O *D counter_gpio_config_example
*CAP
1 gpio_ib_mode_sel[12] 8.7797e-05
2 *874:gpio_ib_mode_sel[12] 0.00958076
3 *400:17 0.134724
4 *400:15 0.134636
5 *400:13 0.181911
6 *400:11 0.191492
7 *400:11 *533:11 0.000440564
8 *400:11 *771:19 0
9 *400:11 *771:21 0.00123735
10 *400:13 *436:13 0
11 *400:17 gpio_oeb[12] 0.000782549
12 *400:17 *664:30 0.028382
13 *400:17 *796:17 0
14 *145:13 *400:13 0.0814125
15 *211:13 *400:13 0.00770118
16 *345:7 *400:11 3.37536e-05
17 *345:9 *400:11 0.00184851
18 *375:17 *400:13 0
*RES
1 *874:gpio_ib_mode_sel[12] *400:11 37.3981 
2 *400:11 *400:13 555.77 
3 *400:13 *400:15 8 
4 *400:15 *400:17 412.787 
5 *400:17 gpio_ib_mode_sel[12] 0.336933 
*END

*D_NET *401 0.850864
*CONN
*P gpio_ib_mode_sel[13] O
*I *874:gpio_ib_mode_sel[13] O *D counter_gpio_config_example
*CAP
1 gpio_ib_mode_sel[13] 0.00181024
2 *874:gpio_ib_mode_sel[13] 0.00808402
3 *401:17 0.116134
4 *401:15 0.114324
5 *401:13 0.191076
6 *401:11 0.19916
7 gpio_ib_mode_sel[13] *665:34 0.000242342
8 gpio_ib_mode_sel[13] *797:17 0.00038764
9 *401:17 gpio_out[13] 0
10 *401:17 *665:34 0
11 *401:17 *797:17 0.136445
12 *98:13 *401:13 0.0797265
13 *100:7 *401:11 2.79086e-05
14 *100:9 *401:11 0.00138103
15 *130:13 *401:13 0
16 *258:13 *401:13 0.000658401
17 *356:7 *401:11 3.11601e-05
18 *356:9 *401:11 0.00137641
19 *398:13 *401:13 0
*RES
1 *874:gpio_ib_mode_sel[13] *401:11 30.8723 
2 *401:11 *401:13 579.887 
3 *401:13 *401:15 8 
4 *401:15 *401:17 415.522 
5 *401:17 gpio_ib_mode_sel[13] 23.9626 
*END

*D_NET *402 1.266
*CONN
*P gpio_ib_mode_sel[14] O
*I *874:gpio_ib_mode_sel[14] O *D counter_gpio_config_example
*CAP
1 gpio_ib_mode_sel[14] 0.00140074
2 *874:gpio_ib_mode_sel[14] 0.0032118
3 *402:13 0.13194
4 *402:11 0.130539
5 *402:9 0.0665629
6 *402:7 0.0697747
7 gpio_ib_mode_sel[14] gpio_oeb[14] 0.000495323
8 gpio_ib_mode_sel[14] gpio_vtrip_sel[14] 0.00196259
9 *402:7 *431:7 0.00027451
10 *402:9 *779:18 0.00625171
11 *402:13 *666:21 0.29404
12 gpio_analog_en[24] *402:13 0
13 *91:17 *402:9 0.185251
14 *99:9 *402:9 0.00110735
15 *105:17 *402:9 0.0469471
16 *123:9 *402:9 0.00549461
17 *189:9 *402:9 0.303629
18 *227:17 *402:13 0
19 *281:25 *402:13 0.000759102
20 *283:9 *402:9 0.0163567
21 *289:7 *402:7 0
22 *316:9 *402:7 0
*RES
1 *874:gpio_ib_mode_sel[14] *402:7 14.8544 
2 *402:7 *402:9 3963.16 
3 *402:9 *402:11 8 
4 *402:11 *402:13 556.558 
5 *402:13 gpio_ib_mode_sel[14] 22.498 
*END

*D_NET *403 0.643695
*CONN
*P gpio_ib_mode_sel[15] O
*I *874:gpio_ib_mode_sel[15] O *D counter_gpio_config_example
*CAP
1 gpio_ib_mode_sel[15] 9.62404e-05
2 *874:gpio_ib_mode_sel[15] 0.000178282
3 *403:21 0.00559829
4 *403:19 0.00550205
5 *403:17 0.101438
6 *403:15 0.101438
7 *403:13 0.179799
8 *403:11 0.179799
9 *403:9 0.031434
10 *403:7 0.0316123
11 gpio_ib_mode_sel[15] gpio_oeb[15] 0
12 gpio_ib_mode_sel[15] gpio_vtrip_sel[15] 0
13 *403:21 *667:13 0
14 *403:21 *799:13 0
15 *186:17 *403:17 0
16 *262:7 *403:7 3.37536e-05
17 *262:9 *403:7 5.66735e-06
18 *262:9 *403:9 0.00664434
19 *335:11 *403:7 2.79668e-05
20 *335:11 *403:9 8.91991e-05
*RES
1 *874:gpio_ib_mode_sel[15] *403:7 0.662667 
2 *403:7 *403:9 98.3304 
3 *403:9 *403:11 8 
4 *403:11 *403:13 4160.36 
5 *403:13 *403:15 8 
6 *403:15 *403:17 298.529 
7 *403:17 *403:19 8 
8 *403:19 *403:21 129.734 
9 *403:21 gpio_ib_mode_sel[15] 1.86429 
*END

*D_NET *404 0.939344
*CONN
*P gpio_ib_mode_sel[16] O
*I *874:gpio_ib_mode_sel[16] O *D counter_gpio_config_example
*CAP
1 gpio_ib_mode_sel[16] 0.000559598
2 *874:gpio_ib_mode_sel[16] 0.000240802
3 *404:25 0.00121888
4 *404:19 0.186473
5 *404:17 0.185814
6 *404:15 0.0362947
7 *404:13 0.0362947
8 *404:11 0.00172638
9 *404:9 0.00196718
10 gpio_ib_mode_sel[16] gpio_oeb[16] 0
11 gpio_ib_mode_sel[16] gpio_vtrip_sel[16] 0
12 *404:9 *428:11 0.000105658
13 *404:11 *428:11 0.00185552
14 *404:15 *457:23 0.0225412
15 *404:15 *484:15 0.168223
16 *404:15 *669:9 0.148965
17 *404:19 *742:13 0.0830916
18 *133:13 *404:15 0.0444354
19 *162:7 *404:9 0
20 *301:9 *404:11 0.00287065
21 *340:7 *404:9 0.000130287
22 *342:13 *404:11 0.000332775
23 *342:19 *404:11 2.11066e-05
24 *342:21 *404:15 0.0161827
*RES
1 *874:gpio_ib_mode_sel[16] *404:9 8.8064 
2 *404:9 *404:11 73.5668 
3 *404:11 *404:13 15 
4 *404:13 *404:15 2283.67 
5 *404:15 *404:17 15 
6 *404:17 *404:19 4689.63 
7 *404:19 *404:25 43.9614 
8 *404:25 gpio_ib_mode_sel[16] 12.5736 
*END

*D_NET *405 0.546741
*CONN
*P gpio_ib_mode_sel[17] O
*I *874:gpio_ib_mode_sel[17] O *D counter_gpio_config_example
*CAP
1 gpio_ib_mode_sel[17] 0.186011
2 *874:gpio_ib_mode_sel[17] 0.000166245
3 *405:11 0.186011
4 *405:9 0.0871479
5 *405:7 0.0873142
6 gpio_ib_mode_sel[17] gpio_oeb[17] 0
7 gpio_ib_mode_sel[17] gpio_vtrip_sel[17] 0
8 *405:9 *422:11 0
9 *160:15 *405:7 4.4107e-05
10 *160:15 *405:9 7.9281e-06
11 *256:9 *405:9 0
12 *343:11 *405:7 3.7642e-05
13 *343:11 *405:9 0
*RES
1 *874:gpio_ib_mode_sel[17] *405:7 0.662667 
2 *405:7 *405:9 253.749 
3 *405:9 *405:11 8 
4 *405:11 gpio_ib_mode_sel[17] 4308.89 
*END

*D_NET *406 0.76975
*CONN
*P gpio_ib_mode_sel[18] O
*I *874:gpio_ib_mode_sel[18] O *D counter_gpio_config_example
*CAP
1 gpio_ib_mode_sel[18] 0.154883
2 *874:gpio_ib_mode_sel[18] 0.00189583
3 *406:15 0.154883
4 *406:13 0.0700875
5 *406:11 0.0700875
6 *406:9 0.014762
7 *406:7 0.0166578
8 gpio_ib_mode_sel[18] gpio_oeb[18] 0
9 gpio_ib_mode_sel[18] gpio_vtrip_sel[18] 0
10 *406:9 *407:9 0.0606415
11 *406:9 *411:9 0.06524
12 *406:9 *431:9 0
13 *406:9 *569:21 0.00135116
14 *406:13 *537:13 0
15 *406:13 *687:11 0.00273488
16 *406:13 *770:11 0.00660442
17 *141:13 *406:13 0.149355
18 *228:7 *406:7 0
19 *268:9 *406:7 0.000320993
20 *324:15 *406:13 0.000245338
*RES
1 *874:gpio_ib_mode_sel[18] *406:7 12.6219 
2 *406:7 *406:9 878.389 
3 *406:9 *406:11 8 
4 *406:11 *406:13 287.452 
5 *406:13 *406:15 8 
6 *406:15 gpio_ib_mode_sel[18] 3596.16 
*END

*D_NET *407 0.603865
*CONN
*P gpio_ib_mode_sel[19] O
*I *874:gpio_ib_mode_sel[19] O *D counter_gpio_config_example
*CAP
1 gpio_ib_mode_sel[19] 0.15432
2 *874:gpio_ib_mode_sel[19] 0.0020632
3 *407:15 0.15432
4 *407:13 0.0677071
5 *407:11 0.0677071
6 *407:9 0.0124224
7 *407:7 0.0144856
8 gpio_ib_mode_sel[19] gpio_oeb[19] 0
9 gpio_ib_mode_sel[19] gpio_vtrip_sel[19] 0
10 gpio_ib_mode_sel[19] *715:13 0
11 *407:7 *664:16 0
12 *407:9 *431:9 0
13 *407:9 *536:9 0.0581414
14 *407:9 *537:9 0.000932027
15 *407:9 *569:21 0.000305674
16 *407:13 *537:13 0
17 *407:13 *722:11 0.0105098
18 *407:13 *772:11 0
19 *105:7 *407:7 0.000308671
20 *147:7 *407:7 0
21 *229:13 *407:13 0
22 *406:9 *407:9 0.0606415
*RES
1 *874:gpio_ib_mode_sel[19] *407:7 12.7077 
2 *407:7 *407:9 796.692 
3 *407:9 *407:11 8 
4 *407:11 *407:13 192.483 
5 *407:13 *407:15 8 
6 *407:15 gpio_ib_mode_sel[19] 3582.77 
*END

*D_NET *408 0.527386
*CONN
*P gpio_ib_mode_sel[1] O
*I *874:gpio_ib_mode_sel[1] O *D counter_gpio_config_example
*CAP
1 gpio_ib_mode_sel[1] 0.00371086
2 *874:gpio_ib_mode_sel[1] 0.00552267
3 *408:17 0.103682
4 *408:15 0.0999713
5 *408:13 0.0442526
6 *408:11 0.0497753
7 gpio_ib_mode_sel[1] gpio_oeb[1] 0.0002534
8 gpio_ib_mode_sel[1] gpio_vtrip_sel[1] 0
9 gpio_ib_mode_sel[1] *672:17 0.000303039
10 *408:17 gpio_vtrip_sel[1] 0
11 *408:17 *672:17 0.218073
12 *94:13 *408:13 0
13 *145:11 *408:11 0.000921028
14 *258:11 *408:11 0.000921028
15 *310:11 *408:17 0
16 *310:13 *408:13 0
*RES
1 *874:gpio_ib_mode_sel[1] *408:11 21.9421 
2 *408:11 *408:13 113.661 
3 *408:13 *408:15 8 
4 *408:15 *408:17 420.631 
5 *408:17 gpio_ib_mode_sel[1] 8.66787 
*END

*D_NET *409 0.611904
*CONN
*P gpio_ib_mode_sel[20] O
*I *874:gpio_ib_mode_sel[20] O *D counter_gpio_config_example
*CAP
1 gpio_ib_mode_sel[20] 0.00222453
2 *874:gpio_ib_mode_sel[20] 0.00908522
3 *409:13 0.118702
4 *409:11 0.125562
5 gpio_ib_mode_sel[20] gpio_oeb[20] 0
6 gpio_ib_mode_sel[20] gpio_vtrip_sel[20] 0
7 gpio_ib_mode_sel[20] *805:29 0
8 *130:13 *409:13 0.0495753
9 *158:9 *409:11 4.67135e-05
10 *187:13 *409:13 0.294673
11 *189:13 gpio_ib_mode_sel[20] 0
12 *237:7 *409:11 3.05369e-05
13 *273:9 *409:11 0
14 *276:11 *409:11 0.00159968
15 *355:9 *409:11 0
16 *390:13 *409:13 0.0104048
*RES
1 *874:gpio_ib_mode_sel[20] *409:11 32.2891 
2 *409:11 *409:13 4127.96 
3 *409:13 gpio_ib_mode_sel[20] 36.015 
*END

*D_NET *410 0.356827
*CONN
*P gpio_ib_mode_sel[21] O
*I *874:gpio_ib_mode_sel[21] O *D counter_gpio_config_example
*CAP
1 gpio_ib_mode_sel[21] 0.000131971
2 *874:gpio_ib_mode_sel[21] 0.00214461
3 *410:21 0.158655
4 *410:19 0.165829
5 *410:13 0.00799382
6 *410:11 0.00283189
7 gpio_ib_mode_sel[21] gpio_oeb[21] 0
8 *410:13 *705:41 0.00366794
9 *410:19 *874:gpio_in[38] 0.00274466
10 *410:19 *553:12 0.00104625
11 *410:19 *740:18 0.00119625
12 *410:19 *826:14 0.00221573
13 *410:21 gpio_vtrip_sel[21] 2.11406e-05
14 *410:21 *806:21 0
15 *117:13 *410:13 0.000173453
16 *176:11 *410:19 0
17 *176:13 *410:19 0.00154043
18 *205:17 *410:19 0.0019394
19 *216:7 *410:11 3.41491e-05
20 *216:9 *410:11 0.000208754
21 *321:11 *410:11 0
22 *367:17 *410:13 0.00366794
23 *372:23 *410:19 0.000623281
24 *380:11 *410:11 0.00016093
*RES
1 *874:gpio_ib_mode_sel[21] *410:11 12.8832 
2 *410:11 *410:13 47.3321 
3 *410:13 *410:19 40.4421 
4 *410:19 *410:21 3659.61 
5 *410:21 gpio_ib_mode_sel[21] 32.5271 
*END

*D_NET *411 0.545548
*CONN
*P gpio_ib_mode_sel[22] O
*I *874:gpio_ib_mode_sel[22] O *D counter_gpio_config_example
*CAP
1 gpio_ib_mode_sel[22] 0.156846
2 *874:gpio_ib_mode_sel[22] 0.0015682
3 *411:15 0.156846
4 *411:13 0.0126532
5 *411:11 0.0126532
6 *411:9 0.0214042
7 *411:7 0.0229724
8 gpio_ib_mode_sel[22] gpio_oeb[22] 0
9 gpio_ib_mode_sel[22] gpio_vtrip_sel[22] 0
10 gpio_ib_mode_sel[22] *688:21 0
11 gpio_ib_mode_sel[22] *773:5 0
12 gpio_ib_mode_sel[22] *817:21 0.0102455
13 *411:7 *439:7 0.000304486
14 *411:7 *666:15 0.000235491
15 *411:9 *431:9 0
16 *411:9 *438:9 0.00101795
17 *411:9 *439:9 0
18 *411:9 *569:21 0.0584978
19 *411:13 *553:18 0.0247319
20 *102:7 *411:7 0.000330701
21 *290:17 *411:13 0
22 *406:9 *411:9 0.06524
*RES
1 *874:gpio_ib_mode_sel[22] *411:7 12.536 
2 *411:7 *411:9 1012.2 
3 *411:9 *411:11 8 
4 *411:11 *411:13 48.2272 
5 *411:13 *411:15 8 
6 *411:15 gpio_ib_mode_sel[22] 3631.37 
*END

*D_NET *412 0.49953
*CONN
*P gpio_ib_mode_sel[23] O
*I *874:gpio_ib_mode_sel[23] O *D counter_gpio_config_example
*CAP
1 gpio_ib_mode_sel[23] 0.00237297
2 *874:gpio_ib_mode_sel[23] 0.00206071
3 *412:9 0.119839
4 *412:7 0.119527
5 gpio_ib_mode_sel[23] gpio_oeb[23] 0
6 gpio_ib_mode_sel[23] gpio_vtrip_sel[23] 0
7 *412:7 *565:7 0.000222381
8 *412:9 *438:9 0.138638
9 *412:9 *439:9 0.00904776
10 *412:9 *569:21 0.0648276
11 *412:9 *666:17 0.0429504
12 *412:9 *808:13 0
13 *190:7 *412:7 4.4246e-05
14 *329:7 *412:7 0
*RES
1 *874:gpio_ib_mode_sel[23] *412:7 12.3643 
2 *412:7 *412:9 3985.76 
3 *412:9 gpio_ib_mode_sel[23] 49.8489 
*END

*D_NET *413 0.664054
*CONN
*P gpio_ib_mode_sel[24] O
*I *874:gpio_ib_mode_sel[24] O *D counter_gpio_config_example
*CAP
1 gpio_ib_mode_sel[24] 0.00463539
2 *874:gpio_ib_mode_sel[24] 0.00824642
3 *413:17 0.182321
4 *413:15 0.177994
5 *413:9 0.00809544
6 *413:7 0.0160332
7 gpio_ib_mode_sel[24] gpio_oeb[24] 0
8 gpio_ib_mode_sel[24] gpio_vtrip_sel[24] 0.00171268
9 gpio_ib_mode_sel[24] *721:17 0
10 gpio_ib_mode_sel[24] *809:17 0.00632168
11 *413:17 gpio_vtrip_sel[27] 0.000363588
12 *413:17 *810:21 0.00849469
13 *413:17 *816:19 0.000363588
14 gpio_analog_en[26] *413:17 0.000363588
15 gpio_analog_en[32] *413:17 0.000363588
16 gpio_analog_pol[30] *413:17 0.000363588
17 gpio_analog_pol[35] *413:15 0.000471405
18 gpio_dm0[28] *413:17 0.000296766
19 gpio_dm0[34] *413:17 0.000296766
20 gpio_holdover[32] *413:17 0.000430409
21 *157:9 *413:9 0.00714392
22 *157:17 *413:17 0.0986613
23 *159:9 *413:17 0.00633124
24 *161:9 *413:9 0.00780519
25 *202:9 *413:17 0.00160279
26 *249:17 *413:15 3.18757e-05
27 *285:9 *413:17 0
28 *289:9 *413:17 0.000287282
29 *336:7 *413:7 0.0014296
30 *336:9 *413:17 0.0078604
31 *361:7 *413:7 0.0014296
32 *361:9 *413:17 0.0438039
33 *365:9 *413:17 0.0441668
34 *366:9 *413:9 0.026332
35 *373:17 *413:17 0
*RES
1 *874:gpio_ib_mode_sel[24] *413:7 29.0224 
2 *413:7 *413:9 335.385 
3 *413:9 *413:15 17.0435 
4 *413:15 *413:17 633.58 
5 *413:17 gpio_ib_mode_sel[24] 23.722 
*END

*D_NET *414 0.382746
*CONN
*P gpio_ib_mode_sel[25] O
*I *874:gpio_ib_mode_sel[25] O *D counter_gpio_config_example
*CAP
1 gpio_ib_mode_sel[25] 0.00664854
2 *874:gpio_ib_mode_sel[25] 0.00835095
3 *414:9 0.139471
4 *414:7 0.141173
5 gpio_ib_mode_sel[25] gpio_oeb[25] 0
6 gpio_ib_mode_sel[25] gpio_vtrip_sel[25] 0.000192836
7 gpio_ib_mode_sel[25] *546:21 0
8 gpio_ib_mode_sel[25] *678:19 0
9 *414:7 *438:7 0
10 *414:7 *663:7 0.000207203
11 *414:9 *464:11 0.054241
12 *414:9 *538:9 0
13 *202:9 *414:9 0.00171154
14 *285:9 *414:9 0.029059
15 *361:9 *414:9 0
16 *365:7 *414:7 0.00169099
17 *365:9 *414:9 0
*RES
1 *874:gpio_ib_mode_sel[25] *414:7 30.7397 
2 *414:7 *414:9 3329.3 
3 *414:9 gpio_ib_mode_sel[25] 49.9243 
*END

*D_NET *415 0.606676
*CONN
*P gpio_ib_mode_sel[26] O
*I *874:gpio_ib_mode_sel[26] O *D counter_gpio_config_example
*CAP
1 gpio_ib_mode_sel[26] 0.00307896
2 *874:gpio_ib_mode_sel[26] 0.00277709
3 *415:17 0.0499911
4 *415:15 0.0469121
5 *415:13 0.0644257
6 *415:11 0.0672028
7 gpio_ib_mode_sel[26] gpio_oeb[26] 0.000371865
8 gpio_ib_mode_sel[26] *811:17 0
9 *415:13 *531:13 0.0324154
10 *415:13 *533:13 0.00104321
11 *415:17 *663:13 0
12 *415:17 *795:9 0.0295628
13 *415:17 *811:17 0
14 *100:7 *415:11 4.41293e-05
15 *100:9 *415:11 0.000420592
16 *148:13 *415:13 0.00043359
17 *149:13 *415:13 0.000344016
18 *149:21 *415:13 0.128763
19 *156:13 *415:13 0.120781
20 *188:7 *415:11 3.86115e-05
21 *188:9 *415:11 0.000429768
22 *205:13 *415:13 0.00132975
23 *246:35 *415:13 0.0100465
24 *246:37 *415:13 0.0458342
25 *246:51 *415:13 4.24889e-05
26 *282:13 *415:13 0.000265953
27 *326:21 *415:13 0
28 *330:21 *415:13 0.000121329
*RES
1 *874:gpio_ib_mode_sel[26] *415:11 15.0728 
2 *415:11 *415:13 456.381 
3 *415:13 *415:15 8 
4 *415:15 *415:17 149.636 
5 *415:17 gpio_ib_mode_sel[26] 7.16707 
*END

*D_NET *416 0.466391
*CONN
*P gpio_ib_mode_sel[27] O
*I *874:gpio_ib_mode_sel[27] O *D counter_gpio_config_example
*CAP
1 gpio_ib_mode_sel[27] 0.00349771
2 *874:gpio_ib_mode_sel[27] 0.0124044
3 *416:25 0.122811
4 *416:23 0.122959
5 *416:19 0.0122038
6 *416:7 0.020963
7 gpio_ib_mode_sel[27] gpio_oeb[27] 0.000656388
8 gpio_ib_mode_sel[27] gpio_vtrip_sel[27] 0.000544967
9 gpio_ib_mode_sel[27] *680:17 0
10 *416:7 *552:7 0
11 *416:19 *424:9 0.00208307
12 *416:19 *424:33 0.00569277
13 *416:19 *819:13 0.00387522
14 *416:23 *424:33 1.41114e-05
15 *416:23 *424:37 0.00114408
16 *416:23 *819:13 0.00134552
17 *416:25 *417:17 0.131627
18 *416:25 *424:37 0.0136757
19 *416:25 *550:9 0
20 *416:25 *819:13 0.00986237
21 *127:7 *416:7 0.000345384
22 *173:7 *416:7 0.000637037
23 *250:26 *416:23 4.84262e-05
24 *294:31 *416:23 0
*RES
1 *874:gpio_ib_mode_sel[27] *416:7 37.0509 
2 *416:7 *416:19 44.7019 
3 *416:19 *416:23 8.8032 
4 *416:23 *416:25 423.871 
5 *416:25 gpio_ib_mode_sel[27] 16.9628 
*END

*D_NET *417 0.406332
*CONN
*P gpio_ib_mode_sel[28] O
*I *874:gpio_ib_mode_sel[28] O *D counter_gpio_config_example
*CAP
1 gpio_ib_mode_sel[28] 0.00360947
2 *874:gpio_ib_mode_sel[28] 0.00995012
3 *417:17 0.0745962
4 *417:15 0.0710642
5 *417:9 0.044455
6 *417:7 0.0543275
7 gpio_ib_mode_sel[28] gpio_oeb[28] 0
8 gpio_ib_mode_sel[28] gpio_vtrip_sel[28] 0.00140056
9 gpio_ib_mode_sel[28] *681:21 0
10 *417:9 *424:9 0.0070263
11 *417:9 *424:33 0.00112499
12 *417:9 *424:37 0.00511271
13 *417:9 *457:11 0
14 *417:9 *819:13 0
15 *417:15 gpio_out[34] 0.00018712
16 *417:17 *550:9 0
17 *377:7 *417:7 0.000526449
18 *382:7 *417:7 0.00132418
19 *416:25 *417:17 0.131627
*RES
1 *874:gpio_ib_mode_sel[28] *417:7 36.5787 
2 *417:7 *417:9 1029.81 
3 *417:9 *417:15 16.3565 
4 *417:15 *417:17 319.547 
5 *417:17 gpio_ib_mode_sel[28] 16.7985 
*END

*D_NET *418 0.442026
*CONN
*P gpio_ib_mode_sel[29] O
*I *874:gpio_ib_mode_sel[29] O *D counter_gpio_config_example
*CAP
1 gpio_ib_mode_sel[29] 0.00836375
2 *874:gpio_ib_mode_sel[29] 0.00519825
3 *418:9 0.138378
4 *418:7 0.135213
5 gpio_ib_mode_sel[29] *682:9 0.0102501
6 gpio_ib_mode_sel[29] *814:25 0
7 *162:9 *418:9 0.00117447
8 *179:9 *418:9 0.00867063
9 *212:7 *418:7 0
10 *241:19 *418:9 0.00333182
11 *259:7 *418:7 0
12 *333:9 *418:9 0.131101
13 *369:7 *418:7 0.000345763
14 *374:9 *418:9 0
*RES
1 *874:gpio_ib_mode_sel[29] *418:7 20.5645 
2 *418:7 *418:9 445.084 
3 *418:9 gpio_ib_mode_sel[29] 33.9047 
*END

*D_NET *419 0.483797
*CONN
*P gpio_ib_mode_sel[2] O
*I *874:gpio_ib_mode_sel[2] O *D counter_gpio_config_example
*CAP
1 gpio_ib_mode_sel[2] 0.00357248
2 *874:gpio_ib_mode_sel[2] 0.00281643
3 *419:17 0.102596
4 *419:15 0.0990237
5 *419:13 0.0189169
6 *419:11 0.0217333
7 gpio_ib_mode_sel[2] *683:17 0
8 gpio_ib_mode_sel[2] *815:21 0.00076766
9 *419:13 *749:25 0.000705843
10 *419:17 *683:17 0
11 *419:17 *815:21 0.225346
12 *131:9 *419:11 0
13 *169:13 *419:13 0.000519779
14 *177:11 *419:17 0.00220846
15 *214:13 *419:13 0.000259661
16 *243:13 *419:13 0.00211729
17 *263:11 *419:11 0.00064158
18 *281:11 *419:11 0.000824084
19 *281:13 *419:13 0.000122544
20 *298:16 *419:11 0.000844367
21 *357:17 *419:13 0.000780317
*RES
1 *874:gpio_ib_mode_sel[2] *419:11 17.9923 
2 *419:11 *419:13 46.6405 
3 *419:13 *419:15 8 
4 *419:15 *419:17 424.581 
5 *419:17 gpio_ib_mode_sel[2] 8.5988 
*END

*D_NET *420 0.341317
*CONN
*P gpio_ib_mode_sel[30] O
*I *874:gpio_ib_mode_sel[30] O *D counter_gpio_config_example
*CAP
1 gpio_ib_mode_sel[30] 0.00276099
2 *874:gpio_ib_mode_sel[30] 0.00253362
3 *420:18 0.0502829
4 *420:16 0.047522
5 *420:14 0.109128
6 *420:12 0.111661
7 gpio_ib_mode_sel[30] gpio_oeb[30] 0.000635541
8 gpio_ib_mode_sel[30] gpio_vtrip_sel[30] 0.000399696
9 *420:12 *545:10 0.000919796
10 *420:18 gpio_oeb[30] 7.95147e-06
11 *420:18 gpio_vtrip_sel[30] 0
12 *420:18 *684:19 0
13 *420:18 *816:19 0.0154655
14 *237:9 *420:12 0
*RES
1 *874:gpio_ib_mode_sel[30] *420:12 14.1604 
2 *420:12 *420:14 272.836 
3 *420:14 *420:16 8 
4 *420:16 *420:18 139.847 
5 *420:18 gpio_ib_mode_sel[30] 7.0924 
*END

*D_NET *421 0.317494
*CONN
*P gpio_ib_mode_sel[31] O
*I *874:gpio_ib_mode_sel[31] O *D counter_gpio_config_example
*CAP
1 gpio_ib_mode_sel[31] 0.0112454
2 *874:gpio_ib_mode_sel[31] 0.0047274
3 *421:9 0.13527
4 *421:7 0.128752
5 gpio_ib_mode_sel[31] gpio_oeb[31] 0
6 gpio_ib_mode_sel[31] gpio_vtrip_sel[31] 0.000811744
7 *157:7 *421:7 0
8 *215:9 *421:9 0.010778
9 *217:9 *421:9 0.0160036
10 *251:24 *421:7 0.000101554
11 *259:17 *421:9 0.00907784
12 *329:15 gpio_ib_mode_sel[31] 5.51976e-06
13 *379:11 *421:7 0.000720637
*RES
1 *874:gpio_ib_mode_sel[31] *421:7 18.8472 
2 *421:7 *421:9 307.362 
3 *421:9 gpio_ib_mode_sel[31] 34.838 
*END

*D_NET *422 0.351411
*CONN
*P gpio_ib_mode_sel[32] O
*I *874:gpio_ib_mode_sel[32] O *D counter_gpio_config_example
*CAP
1 gpio_ib_mode_sel[32] 0.000441741
2 *874:gpio_ib_mode_sel[32] 0.000511123
3 *422:17 0.0511357
4 *422:15 0.050694
5 *422:13 0.0202793
6 *422:11 0.0207905
7 gpio_ib_mode_sel[32] gpio_oeb[32] 0
8 gpio_ib_mode_sel[32] gpio_vtrip_sel[32] 6.01509e-05
9 gpio_ib_mode_sel[32] *726:21 0.000625566
10 *422:13 *463:11 0
11 *422:13 *549:13 0.0949592
12 *422:17 gpio_oeb[32] 0.000121628
13 *422:17 *834:9 0.0293684
14 *137:13 *422:11 0.000174835
15 *303:7 *422:11 1.73779e-05
16 *334:13 *422:13 0.000104065
17 *335:13 *422:13 0.076561
18 *343:11 *422:11 0.000151007
19 *378:21 *422:13 0.00541505
20 *405:9 *422:11 0
*RES
1 *874:gpio_ib_mode_sel[32] *422:11 10.0496 
2 *422:11 *422:13 1219.97 
3 *422:13 *422:15 8 
4 *422:15 *422:17 150.58 
5 *422:17 gpio_ib_mode_sel[32] 24.6285 
*END

*D_NET *423 0.210711
*CONN
*P gpio_ib_mode_sel[33] O
*I *874:gpio_ib_mode_sel[33] O *D counter_gpio_config_example
*CAP
1 gpio_ib_mode_sel[33] 0.000130601
2 *874:gpio_ib_mode_sel[33] 0.00373842
3 *423:17 0.057785
4 *423:15 0.0576544
5 *423:13 0.0168558
6 *423:11 0.0205942
7 *423:13 *444:11 0.00368646
8 *423:13 *446:11 0.00561997
9 *423:17 gpio_oeb[33] 0.000642805
10 *423:17 gpio_vtrip_sel[33] 0.000521457
11 *423:17 *687:17 0
12 *423:17 *712:9 0.00475942
13 *153:13 *423:13 0.0310582
14 *239:21 *423:13 0
15 *281:21 *423:13 0.000948654
16 *286:13 *423:13 0.00595326
17 *331:9 *423:11 0
18 *367:15 *423:11 0.000298264
19 *397:7 *423:11 2.82839e-05
20 *397:9 *423:11 0.000435376
*RES
1 *874:gpio_ib_mode_sel[33] *423:11 16.7901 
2 *423:11 *423:13 75.8352 
3 *423:13 *423:15 8 
4 *423:15 *423:17 157.765 
5 *423:17 gpio_ib_mode_sel[33] 0.5012 
*END

*D_NET *424 0.186461
*CONN
*P gpio_ib_mode_sel[34] O
*I *874:gpio_ib_mode_sel[34] O *D counter_gpio_config_example
*CAP
1 gpio_ib_mode_sel[34] 0.00311226
2 *874:gpio_ib_mode_sel[34] 0.00931755
3 *424:44 7.29615e-06
4 *424:37 0.0197007
5 *424:35 0.0165957
6 *424:33 0.00497894
7 *424:9 0.0358046
8 *424:7 0.0401432
9 gpio_ib_mode_sel[34] gpio_oeb[34] 0
10 gpio_ib_mode_sel[34] gpio_vtrip_sel[34] 0.00441973
11 gpio_ib_mode_sel[34] *688:25 0
12 *424:9 *550:9 0.00173742
13 *424:9 *819:13 0.00799448
14 *424:33 gpio_slow_sel[36] 4.53073e-05
15 *424:33 *550:9 0.000382553
16 *424:33 *819:13 0
17 *424:37 *550:9 0.00303064
18 *424:44 gpio_oeb[34] 0
19 gpio_dm1[36] *424:33 5.42193e-05
20 *202:7 *424:7 0.00189631
21 *250:26 *424:33 2.79505e-05
22 *291:7 *424:7 0.00128741
23 *294:31 *424:33 5.06299e-05
24 *416:19 *424:9 0.00208307
25 *416:19 *424:33 0.00569277
26 *416:23 *424:33 1.41114e-05
27 *416:23 *424:37 0.00114408
28 *416:25 *424:37 0.0136757
29 *417:9 *424:9 0.0070263
30 *417:9 *424:33 0.00112499
31 *417:9 *424:37 0.00511271
*RES
1 *874:gpio_ib_mode_sel[34] *424:7 36.7075 
2 *424:7 *424:9 98.6869 
3 *424:9 *424:33 47.3299 
4 *424:33 *424:35 8 
5 *424:35 *424:37 71.1387 
6 *424:37 gpio_ib_mode_sel[34] 16.8723 
7 gpio_ib_mode_sel[34] *424:44 0.0819512 
*END

*D_NET *425 0.220272
*CONN
*P gpio_ib_mode_sel[35] O
*I *874:gpio_ib_mode_sel[35] O *D counter_gpio_config_example
*CAP
1 gpio_ib_mode_sel[35] 0.000342166
2 *874:gpio_ib_mode_sel[35] 0.000368932
3 *425:21 0.00215663
4 *425:19 0.00181446
5 *425:17 0.0377409
6 *425:15 0.0377409
7 *425:13 0.00813773
8 *425:11 0.00850666
9 gpio_ib_mode_sel[35] gpio_oeb[35] 0.000151828
10 gpio_ib_mode_sel[35] gpio_vtrip_sel[35] 0.000508852
11 *425:13 *543:13 0.0287969
12 *425:13 *546:13 0
13 *425:17 *557:17 0.0251082
14 *425:17 *661:13 0.00274328
15 *425:17 *689:9 0.0170682
16 *425:17 *705:29 0.00124828
17 *425:17 *734:9 0.000604228
18 *425:17 *735:9 0.00120344
19 *425:17 *749:13 0.00438512
20 *425:17 *779:16 0.00391354
21 *425:17 *787:9 0.00100889
22 *425:21 *726:21 0
23 *127:19 *425:17 4.35395e-05
24 *140:7 *425:11 3.50921e-05
25 *140:9 *425:11 1.96305e-05
26 *146:27 *425:17 0.00355883
27 *235:13 *425:13 0.0156834
28 *239:11 *425:11 6.38524e-05
29 *240:19 *425:17 0.00189032
30 *282:27 *425:17 4.62763e-05
31 *338:21 *425:21 0.00825226
32 *347:19 *425:17 2.24267e-05
33 *381:21 *425:21 0.00710684
*RES
1 *874:gpio_ib_mode_sel[35] *425:11 9.0192 
2 *425:11 *425:13 372.008 
3 *425:13 *425:15 8 
4 *425:15 *425:17 149.035 
5 *425:17 *425:19 8 
6 *425:19 *425:21 106.492 
7 *425:21 gpio_ib_mode_sel[35] 9.24227 
*END

*D_NET *426 0.167033
*CONN
*P gpio_ib_mode_sel[36] O
*I *874:gpio_ib_mode_sel[36] O *D counter_gpio_config_example
*CAP
1 gpio_ib_mode_sel[36] 0.0140267
2 *874:gpio_ib_mode_sel[36] 0.00222659
3 *426:9 0.0381874
4 *426:7 0.0263873
5 gpio_ib_mode_sel[36] gpio_oeb[36] 0.00100863
6 *426:9 *431:9 0.00135342
7 *426:9 *778:13 0.000907533
8 *93:7 *426:7 0.000334848
9 *93:9 *426:9 0.0240998
10 *93:17 *426:9 0.0001646
11 *105:9 *426:9 0.000168861
12 *105:15 gpio_ib_mode_sel[36] 0
13 *122:17 *426:9 0.00239358
14 *127:9 *426:9 0.00732944
15 *133:9 *426:9 0.0319827
16 *180:9 *426:9 0.000141169
17 *194:7 gpio_ib_mode_sel[36] 0
18 *223:7 *426:7 9.4577e-05
19 *244:9 *426:9 0.0128284
20 *392:13 *426:9 0.00339743
*RES
1 *874:gpio_ib_mode_sel[36] *426:7 13.6952 
2 *426:7 *426:9 121.15 
3 *426:9 gpio_ib_mode_sel[36] 40.3932 
*END

*D_NET *427 0.313613
*CONN
*P gpio_ib_mode_sel[37] O
*I *874:gpio_ib_mode_sel[37] O *D counter_gpio_config_example
*CAP
1 gpio_ib_mode_sel[37] 0.000539897
2 *874:gpio_ib_mode_sel[37] 0.00050209
3 *427:21 0.0179357
4 *427:19 0.0173958
5 *427:17 0.0277827
6 *427:15 0.0277827
7 *427:13 0.00294335
8 *427:11 0.00344544
9 gpio_ib_mode_sel[37] gpio_oeb[37] 0.000122379
10 gpio_ib_mode_sel[37] gpio_vtrip_sel[37] 6.64837e-05
11 *427:11 *531:11 6.64787e-05
12 *427:13 *546:13 0
13 *427:17 *829:16 0.00072734
14 *427:21 gpio_vtrip_sel[37] 0.000725944
15 *427:21 *726:21 0
16 gpio_dm0[37] *427:21 0
17 *117:17 *427:17 0.0630367
18 *118:20 *427:21 0.00328383
19 *148:17 *427:17 0.00882363
20 *207:9 *427:21 0
21 *215:31 *427:17 0.00533506
22 *235:13 *427:13 0.00976588
23 *293:21 *427:21 0.00465076
24 *313:7 *427:11 3.3537e-05
25 *313:9 *427:11 2.61535e-05
26 *338:13 *427:13 0.00534449
27 *338:17 *427:17 0.0774208
28 *338:21 *427:21 0.0245416
29 *339:35 *427:21 0
30 *381:17 *427:17 0.00407918
31 *381:21 *427:21 1.63351e-05
32 *382:17 *427:21 0.00399436
33 *391:21 *427:17 0.00322414
*RES
1 *874:gpio_ib_mode_sel[37] *427:11 9.19093 
2 *427:11 *427:13 126.916 
3 *427:13 *427:15 8 
4 *427:15 *427:17 149.035 
5 *427:17 *427:19 8 
6 *427:19 *427:21 558.644 
7 *427:21 gpio_ib_mode_sel[37] 9.45133 
*END

*D_NET *428 0.161947
*CONN
*P gpio_ib_mode_sel[38] O
*I *874:gpio_ib_mode_sel[38] O *D counter_gpio_config_example
*CAP
1 gpio_ib_mode_sel[38] 0.00599748
2 *874:gpio_ib_mode_sel[38] 8.37649e-05
3 *428:17 0.00599748
4 *428:15 0.0312065
5 *428:13 0.0312065
6 *428:11 0.0131994
7 *428:9 0.0132832
8 gpio_ib_mode_sel[38] *692:13 0.0153335
9 *428:11 *560:11 0.00997417
10 *428:11 *564:8 0.000239211
11 *428:11 *566:6 0.000149504
12 *428:11 *664:16 0.00020813
13 *428:15 *472:13 0.00078315
14 *428:15 *477:11 0
15 *428:15 *695:14 0.0319567
16 *105:7 *428:9 4.51655e-06
17 *252:42 gpio_ib_mode_sel[38] 0.000363013
18 *301:9 *428:11 0
19 *392:11 *428:9 0
20 *404:9 *428:11 0.000105658
21 *404:11 *428:11 0.00185552
*RES
1 *874:gpio_ib_mode_sel[38] *428:9 8.25387 
2 *428:9 *428:11 347.358 
3 *428:11 *428:13 8 
4 *428:13 *428:15 110.652 
5 *428:15 *428:17 8 
6 *428:17 gpio_ib_mode_sel[38] 203.891 
*END

*D_NET *429 0.122102
*CONN
*P gpio_ib_mode_sel[39] O
*I *874:gpio_ib_mode_sel[39] O *D counter_gpio_config_example
*CAP
1 gpio_ib_mode_sel[39] 0.00116447
2 *874:gpio_ib_mode_sel[39] 0.000159643
3 *429:13 0.0263911
4 *429:11 0.0252266
5 *429:9 0.0287623
6 *429:7 0.0289219
7 gpio_ib_mode_sel[39] gpio_oeb[39] 0
8 gpio_ib_mode_sel[39] *478:9 0
9 gpio_ib_mode_sel[39] *565:13 0.000342017
10 gpio_ib_mode_sel[39] *825:18 0
11 *429:13 *825:18 0
12 *126:11 *429:7 4.4107e-05
13 *126:11 *429:9 0.00026946
14 *131:7 *429:7 4.4107e-05
15 *131:9 *429:7 7.9281e-06
16 *131:9 *429:9 0.00869893
17 *222:9 *429:9 0
18 *298:16 *429:9 0.000110022
19 *320:17 *429:9 0.00195945
*RES
1 *874:gpio_ib_mode_sel[39] *429:7 0.662667 
2 *429:7 *429:9 98.3304 
3 *429:9 *429:11 8 
4 *429:11 *429:13 573.434 
5 *429:13 gpio_ib_mode_sel[39] 34.8786 
*END

*D_NET *430 0.473389
*CONN
*P gpio_ib_mode_sel[3] O
*I *874:gpio_ib_mode_sel[3] O *D counter_gpio_config_example
*CAP
1 gpio_ib_mode_sel[3] 0.00335678
2 *874:gpio_ib_mode_sel[3] 0.0670342
3 *430:19 0.142433
4 *430:17 0.139076
5 *430:15 0.0217652
6 *430:13 0.0887993
7 gpio_ib_mode_sel[3] gpio_oeb[3] 0
8 gpio_ib_mode_sel[3] gpio_vtrip_sel[3] 0.00192265
9 gpio_ib_mode_sel[3] *826:22 0
10 *430:13 *433:8 0.00022803
11 *430:13 *437:9 0.00021845
12 *430:19 *826:22 0
13 *98:13 *430:15 0.000779669
14 *130:13 *430:15 0
15 *177:13 *430:15 0.0032922
16 *209:9 *430:13 0.00147276
17 *253:11 *430:19 0
18 *258:13 *430:15 0.00218815
19 *353:9 *430:13 0.000822183
*RES
1 *874:gpio_ib_mode_sel[3] *430:13 26.0702 
2 *430:13 *430:15 57.8107 
3 *430:15 *430:17 8 
4 *430:17 *430:19 411.357 
5 *430:19 gpio_ib_mode_sel[3] 8.38973 
*END

*D_NET *431 0.386878
*CONN
*P gpio_ib_mode_sel[40] O
*I *874:gpio_ib_mode_sel[40] O *D counter_gpio_config_example
*CAP
1 gpio_ib_mode_sel[40] 0.000918233
2 *874:gpio_ib_mode_sel[40] 0.00243264
3 *431:13 0.0625772
4 *431:11 0.061659
5 *431:9 0.023586
6 *431:7 0.0260186
7 gpio_ib_mode_sel[40] *695:22 0
8 *431:9 *537:9 0
9 *431:9 *778:13 0
10 *431:13 *565:13 0.139119
11 *431:13 *693:9 0
12 gpio_analog_en[38] *431:13 0.00467212
13 gpio_analog_pol[39] *431:13 0.0051381
14 *93:17 *431:9 0.0164373
15 *105:9 *431:9 0.00145092
16 *125:9 *431:9 0.040251
17 *133:9 *431:9 0.000715942
18 *289:7 *431:7 0.00027451
19 *402:7 *431:7 0.00027451
20 *406:9 *431:9 0
21 *407:9 *431:9 0
22 *411:9 *431:9 0
23 *426:9 *431:9 0.00135342
*RES
1 *874:gpio_ib_mode_sel[40] *431:7 13.3947 
2 *431:7 *431:9 803.735 
3 *431:9 *431:11 8 
4 *431:11 *431:13 268.303 
5 *431:13 gpio_ib_mode_sel[40] 27.4818 
*END

*D_NET *432 0.245838
*CONN
*P gpio_ib_mode_sel[41] O
*I *874:gpio_ib_mode_sel[41] O *D counter_gpio_config_example
*CAP
1 gpio_ib_mode_sel[41] 4.85365e-05
2 *874:gpio_ib_mode_sel[41] 0.000797189
3 *432:23 0.00278732
4 *432:21 0.00273878
5 *432:19 0.106981
6 *432:17 0.106981
7 *432:15 0.00459155
8 *432:13 0.00538874
9 gpio_ib_mode_sel[41] gpio_oeb[41] 2.09873e-05
10 *432:13 *560:11 8.60312e-05
11 *432:13 *563:11 0.00105053
12 *432:13 *566:6 0.000325813
13 *432:13 *567:13 0.00041266
14 *432:13 *662:13 0
15 *432:15 *563:11 0.00589392
16 *432:15 *566:6 0.00213933
17 *432:19 *563:15 0
18 *432:23 gpio_oeb[41] 0
19 *432:23 gpio_vtrip_sel[41] 0
20 *432:23 *696:18 0.0055953
21 *126:17 *432:19 0
22 *211:17 *432:19 0
23 *345:17 *432:23 0
*RES
1 *874:gpio_ib_mode_sel[41] *432:13 25.3511 
2 *432:13 *432:15 146.885 
3 *432:15 *432:17 8 
4 *432:17 *432:19 313.899 
5 *432:19 *432:21 8 
6 *432:21 *432:23 88.1807 
7 *432:23 gpio_ib_mode_sel[41] 1.46036 
*END

*D_NET *433 0.307476
*CONN
*P gpio_ib_mode_sel[42] O
*I *874:gpio_ib_mode_sel[42] O *D counter_gpio_config_example
*CAP
1 gpio_ib_mode_sel[42] 0.000360145
2 *874:gpio_ib_mode_sel[42] 0.00290317
3 *433:22 0.0917681
4 *433:20 0.0914079
5 *433:18 0.010463
6 *433:16 0.0107173
7 *433:10 0.0309673
8 *433:8 0.0336162
9 gpio_ib_mode_sel[42] gpio_vtrip_sel[42] 9.33401e-06
10 *433:8 *664:18 0.000476838
11 *433:8 *665:22 0.000476838
12 *433:10 *532:17 0
13 *433:10 *534:12 0
14 *433:10 *566:6 0
15 *433:10 *571:12 0
16 *433:10 *664:16 0
17 *433:10 *665:14 0
18 *433:16 *459:23 0.000115593
19 *433:16 *690:13 0.000316838
20 *433:16 *726:9 0.000141749
21 *433:16 *731:9 0.000133453
22 *433:22 *828:11 0.000293929
23 *433:22 *828:13 0.0214112
24 *433:22 *873:13 0.00140221
25 *123:21 *433:22 0
26 *125:21 *433:22 0
27 *129:9 *433:8 0.00137228
28 *129:9 *433:10 0
29 *144:8 *433:10 0
30 *168:21 *433:22 0
31 *257:17 *433:22 0.00560888
32 *300:21 *433:22 0
33 *342:13 *433:10 0
34 *344:27 *433:22 0.00305875
35 *344:35 *433:22 0
36 *345:21 *433:22 0.000227128
37 *430:13 *433:8 0.00022803
*RES
1 *874:gpio_ib_mode_sel[42] *433:8 18.7072 
2 *433:8 *433:10 91.1941 
3 *433:10 *433:16 17.2152 
4 *433:16 *433:18 235.905 
5 *433:18 *433:20 15 
6 *433:20 *433:22 2013.06 
7 *433:22 gpio_ib_mode_sel[42] 23.5343 
*END

*D_NET *434 0.427723
*CONN
*P gpio_ib_mode_sel[43] O
*I *874:gpio_ib_mode_sel[43] O *D counter_gpio_config_example
*CAP
1 gpio_ib_mode_sel[43] 0.000121258
2 *874:gpio_ib_mode_sel[43] 0.000445402
3 *434:21 0.00321386
4 *434:19 0.00314118
5 *434:17 0.00433165
6 *434:15 0.00428307
7 *434:13 0.125694
8 *434:11 0.125694
9 *434:9 0.0161267
10 *434:7 0.0165721
11 *434:13 *698:9 0
12 *434:21 gpio_vtrip_sel[43] 0.00358438
13 *107:7 *434:7 5.25543e-05
14 *223:9 *434:9 0
15 *225:9 *434:9 0
16 *252:48 *434:13 0.00353969
17 *302:9 *434:9 0.0423343
18 *302:13 *434:13 0
19 *343:17 *434:13 0.0776009
20 *347:9 *434:9 0.000242562
21 *373:7 *434:7 4.30651e-05
22 *384:9 *434:9 0
23 *391:9 *434:9 0.000702128
*RES
1 *874:gpio_ib_mode_sel[43] *434:7 8.9296 
2 *434:7 *434:9 544.558 
3 *434:9 *434:11 8 
4 *434:11 *434:13 416.853 
5 *434:13 *434:15 8 
6 *434:15 *434:17 96.4457 
7 *434:17 *434:19 1.09786 
8 *434:19 *434:21 85.7571 
9 *434:21 gpio_ib_mode_sel[43] 2.93107 
*END

*D_NET *435 0.347951
*CONN
*P gpio_ib_mode_sel[4] O
*I *874:gpio_ib_mode_sel[4] O *D counter_gpio_config_example
*CAP
1 gpio_ib_mode_sel[4] 0.00314709
2 *874:gpio_ib_mode_sel[4] 0.000210702
3 *435:15 0.00795737
4 *435:9 0.135912
5 *435:7 0.131313
6 gpio_ib_mode_sel[4] gpio_oeb[4] 0.00188895
7 gpio_ib_mode_sel[4] *699:9 0.00290029
8 *435:15 *483:11 0.00279855
9 *156:11 *435:7 3.86115e-05
10 *156:11 *435:9 0.000438372
11 *171:7 *435:7 3.86115e-05
12 *171:9 *435:7 5.5178e-06
13 *171:9 *435:9 0.038149
14 *171:19 *435:15 0.00997354
15 *348:13 *435:15 0.0131796
*RES
1 *874:gpio_ib_mode_sel[4] *435:7 0.662667 
2 *435:7 *435:9 431.965 
3 *435:9 *435:15 48.0432 
4 *435:15 gpio_ib_mode_sel[4] 9.55733 
*END

*D_NET *436 0.418795
*CONN
*P gpio_ib_mode_sel[5] O
*I *874:gpio_ib_mode_sel[5] O *D counter_gpio_config_example
*CAP
1 gpio_ib_mode_sel[5] 0.00342359
2 *874:gpio_ib_mode_sel[5] 0.0094351
3 *436:17 0.142032
4 *436:15 0.138608
5 *436:13 0.0450784
6 *436:11 0.0545135
7 gpio_ib_mode_sel[5] gpio_oeb[5] 0
8 gpio_ib_mode_sel[5] gpio_vtrip_sel[5] 0.0014004
9 *436:13 *540:13 0
10 *436:13 *541:13 0.00372091
11 *436:13 *567:27 0.00207917
12 *436:13 *717:13 0.0139919
13 *436:17 gpio_oeb[5] 0
14 *175:7 *436:11 3.81941e-05
15 *175:9 *436:11 0.00194018
16 *312:7 *436:11 4.4107e-05
17 *312:9 *436:11 0.00249011
18 *400:13 *436:13 0
*RES
1 *874:gpio_ib_mode_sel[5] *436:11 38.6003 
2 *436:11 *436:13 123.943 
3 *436:13 *436:15 8 
4 *436:15 *436:17 403.973 
5 *436:17 gpio_ib_mode_sel[5] 8.61373 
*END

*D_NET *437 0.45921
*CONN
*P gpio_ib_mode_sel[6] O
*I *874:gpio_ib_mode_sel[6] O *D counter_gpio_config_example
*CAP
1 gpio_ib_mode_sel[6] 0.00844366
2 *874:gpio_ib_mode_sel[6] 0.000162955
3 *437:13 0.053259
4 *437:11 0.0448153
5 *437:9 0.125114
6 *437:7 0.125277
7 gpio_ib_mode_sel[6] gpio_oeb[6] 0.00250103
8 gpio_ib_mode_sel[6] gpio_vtrip_sel[6] 0.000760506
9 *437:7 *874:gpio_in[0] 4.4107e-05
10 *437:9 *874:gpio_in[0] 0.00130107
11 *134:13 *437:13 0
12 *136:13 *437:13 0.0601186
13 *210:14 *437:13 0
14 *303:13 *437:13 0
15 *353:7 *437:7 4.4107e-05
16 *353:9 *437:7 7.9281e-06
17 *353:9 *437:9 0.0371421
18 *430:13 *437:9 0.00021845
*RES
1 *874:gpio_ib_mode_sel[6] *437:7 0.662667 
2 *437:7 *437:9 417.883 
3 *437:9 *437:11 8 
4 *437:11 *437:13 183.094 
5 *437:13 gpio_ib_mode_sel[6] 32.066 
*END

*D_NET *438 0.791776
*CONN
*P gpio_ib_mode_sel[7] O
*I *874:gpio_ib_mode_sel[7] O *D counter_gpio_config_example
*CAP
1 gpio_ib_mode_sel[7] 0.001837
2 *874:gpio_ib_mode_sel[7] 0.00180386
3 *438:13 0.188325
4 *438:11 0.186488
5 *438:9 0.0333994
6 *438:7 0.0352032
7 gpio_ib_mode_sel[7] gpio_oeb[7] 0.00038764
8 gpio_ib_mode_sel[7] gpio_vtrip_sel[7] 0.00023818
9 *438:7 *663:7 0.000208681
10 *438:9 *439:9 0.169342
11 *438:9 *569:21 0.0133464
12 *438:13 gpio_out[7] 0
13 *438:13 gpio_vtrip_sel[7] 0.0215421
14 *139:7 *438:7 0
15 *411:9 *438:9 0.00101795
16 *412:9 *438:9 0.138638
17 *414:7 *438:7 0
*RES
1 *874:gpio_ib_mode_sel[7] *438:7 12.2784 
2 *438:7 *438:9 2182.73 
3 *438:9 *438:11 8 
4 *438:11 *438:13 554.068 
5 *438:13 gpio_ib_mode_sel[7] 24.637 
*END

*D_NET *439 0.858229
*CONN
*P gpio_ib_mode_sel[8] O
*I *874:gpio_ib_mode_sel[8] O *D counter_gpio_config_example
*CAP
1 gpio_ib_mode_sel[8] 0.00173346
2 *874:gpio_ib_mode_sel[8] 0.00149036
3 *439:13 0.191423
4 *439:11 0.18969
5 *439:9 0.0428283
6 *439:7 0.0443187
7 gpio_ib_mode_sel[8] gpio_oeb[8] 0
8 gpio_ib_mode_sel[8] gpio_vtrip_sel[8] 0.000925298
9 *439:7 *666:15 1.39834e-05
10 *439:9 *666:17 0.204009
11 *439:13 gpio_oeb[8] 0
12 *439:13 gpio_vtrip_sel[8] 0.00285912
13 *439:13 *764:9 0
14 *371:7 *439:7 0.000243608
15 *411:7 *439:7 0.000304486
16 *411:9 *439:9 0
17 *412:9 *439:9 0.00904776
18 *438:9 *439:9 0.169342
*RES
1 *874:gpio_ib_mode_sel[8] *439:7 12.1925 
2 *439:7 *439:9 2633.47 
3 *439:9 *439:11 8 
4 *439:11 *439:13 553.982 
5 *439:13 gpio_ib_mode_sel[8] 22.5689 
*END

*D_NET *440 0.814792
*CONN
*P gpio_ib_mode_sel[9] O
*I *874:gpio_ib_mode_sel[9] O *D counter_gpio_config_example
*CAP
1 gpio_ib_mode_sel[9] 8.39057e-05
2 *874:gpio_ib_mode_sel[9] 0.00581405
3 *440:13 0.195546
4 *440:11 0.195462
5 *440:9 0.0542168
6 *440:7 0.0600309
7 *440:7 gpio_slow_sel[37] 0.000720461
8 *440:13 gpio_oeb[9] 0.00933567
9 *440:13 *836:17 0
10 *157:7 *440:7 0
11 *174:7 *440:7 0
12 *178:17 *440:9 0.186059
13 *241:19 *440:9 0.00615863
14 *302:7 *440:7 5.29169e-05
15 *304:9 *440:9 0.054684
16 *374:9 *440:9 0.046628
*RES
1 *874:gpio_ib_mode_sel[9] *440:7 21.2944 
2 *440:7 *440:9 2369.36 
3 *440:9 *440:11 8 
4 *440:11 *440:13 566.875 
5 *440:13 gpio_ib_mode_sel[9] 0.322 
*END

*D_NET *441 0.374934
*CONN
*P gpio_in[0] I
*I *874:gpio_in[0] I *D counter_gpio_config_example
*CAP
1 gpio_in[0] 0.000106767
2 *874:gpio_in[0] 0.00565158
3 *441:11 0.0296355
4 *441:9 0.0239839
5 *441:7 0.145792
6 *441:5 0.145899
7 *874:gpio_in[0] *463:7 0
8 *874:gpio_in[0] *557:11 0.000199399
9 *441:7 *749:29 0
10 *124:13 *441:11 0.00865013
11 *263:13 *441:11 0.013671
12 *437:7 *874:gpio_in[0] 4.4107e-05
13 *437:9 *874:gpio_in[0] 0.00130107
*RES
1 gpio_in[0] *441:5 0.409733 
2 *441:5 *441:7 425.495 
3 *441:7 *441:9 8 
4 *441:9 *441:11 82.0549 
5 *441:11 *874:gpio_in[0] 24.6899 
*END

*D_NET *442 0.58981
*CONN
*P gpio_in[10] I
*I *874:gpio_in[10] I *D counter_gpio_config_example
*CAP
1 gpio_in[10] 8.09873e-05
2 *874:gpio_in[10] 0.000114738
3 *442:15 0.00768838
4 *442:11 0.141291
5 *442:9 0.133717
6 *442:7 0.139139
7 *442:5 0.13922
8 *442:11 *761:21 0
9 *442:15 *874:gpio_in[11] 1.13061e-05
10 *442:15 *443:15 0.0196248
11 *442:15 *444:21 0.000902215
12 *442:15 *445:15 0.00382582
13 *169:17 *442:15 0.00419557
*RES
1 gpio_in[10] *442:5 0.3108 
2 *442:5 *442:7 403.728 
3 *442:7 *442:9 8 
4 *442:9 *442:11 3079.28 
5 *442:11 *442:15 46.0091 
6 *442:15 *874:gpio_in[10] 9.02536 
*END

*D_NET *443 0.733224
*CONN
*P gpio_in[11] I
*I *874:gpio_in[11] I *D counter_gpio_config_example
*CAP
1 gpio_in[11] 0.000267027
2 *874:gpio_in[11] 0.000472017
3 *443:15 0.10793
4 *443:13 0.107458
5 *443:11 0.142849
6 *443:9 0.142849
7 *443:7 0.0317642
8 *443:5 0.0320312
9 *874:gpio_in[11] *874:gpio_in[1] 0.000457309
10 *443:15 *874:gpio_in[1] 0.000260477
11 *443:15 *446:15 0.000691023
12 *443:15 *447:13 0.0258622
13 *443:15 *448:9 0.0241573
14 *443:15 *483:15 0.0297715
15 *443:15 *670:9 0.00776218
16 *443:15 *683:9 0.00108669
17 *443:15 *700:9 0.0347146
18 *169:17 *443:15 0.0232046
19 *442:15 *874:gpio_in[11] 1.13061e-05
20 *442:15 *443:15 0.0196248
*RES
1 gpio_in[11] *443:5 1.05747 
2 *443:5 *443:7 90.7443 
3 *443:7 *443:9 8 
4 *443:9 *443:11 3308.88 
5 *443:11 *443:13 8 
6 *443:13 *443:15 350.95 
7 *443:15 *874:gpio_in[11] 10.5357 
*END

*D_NET *444 0.845636
*CONN
*P gpio_in[12] I
*I *874:gpio_in[12] I *D counter_gpio_config_example
*CAP
1 gpio_in[12] 0.000136806
2 *874:gpio_in[12] 0.000320993
3 *444:21 0.00318979
4 *444:11 0.0888453
5 *444:9 0.0859765
6 *444:7 0.149168
7 *444:5 0.149305
8 *874:gpio_in[12] *446:15 0.000717986
9 *874:gpio_in[12] *700:9 0.000719984
10 *444:7 *752:17 0
11 *444:11 *446:11 0.277686
12 *444:11 *683:13 0.0467056
13 *444:11 *826:18 0.0153986
14 *444:21 *815:17 0
15 *153:13 *444:11 0.0162632
16 *281:13 *444:11 0
17 *286:13 *444:11 0.00183856
18 *326:21 *444:11 0.00477484
19 *423:13 *444:11 0.00368646
20 *442:15 *444:21 0.000902215
*RES
1 gpio_in[12] *444:5 0.5348 
2 *444:5 *444:7 433.266 
3 *444:7 *444:9 8 
4 *444:9 *444:11 3541.29 
5 *444:11 *444:21 43.2276 
6 *444:21 *874:gpio_in[12] 25.5436 
*END

*D_NET *445 0.661318
*CONN
*P gpio_in[13] I
*I *874:gpio_in[13] I *D counter_gpio_config_example
*CAP
1 gpio_in[13] 7.24423e-06
2 *874:gpio_in[13] 0
3 *445:15 0.00786119
4 *445:13 0.00786119
5 *445:11 0.135803
6 *445:9 0.135803
7 *445:7 0.137131
8 *445:5 0.137138
9 *445:5 *753:25 0
10 *445:7 *753:25 0
11 *445:15 *874:gpio_in[14] 0.000110529
12 *445:15 *446:15 0.00275
13 *445:15 *700:9 0.00356771
14 *277:13 *445:11 0.0894592
15 *442:15 *445:15 0.00382582
*RES
1 gpio_in[13] *445:5 0.0714894 
2 *445:5 *445:7 405.016 
3 *445:7 *445:9 8 
4 *445:9 *445:11 4008.76 
5 *445:11 *445:13 15 
6 *445:13 *445:15 214.538 
7 *445:15 *874:gpio_in[13] 15 
*END

*D_NET *446 0.888545
*CONN
*P gpio_in[14] I
*I *874:gpio_in[14] I *D counter_gpio_config_example
*CAP
1 gpio_in[14] 0.000223661
2 *874:gpio_in[14] 0.000313807
3 *446:15 0.00149064
4 *446:13 0.00117683
5 *446:11 0.138085
6 *446:9 0.138085
7 *446:7 0.146793
8 *446:5 0.147017
9 *874:gpio_in[14] *700:9 0.000589325
10 *446:11 *533:21 0
11 *446:11 *544:13 0
12 *446:11 *683:13 0.000118818
13 *446:15 *700:9 0.00234887
14 *874:gpio_in[12] *446:15 0.000717986
15 *153:13 *446:11 0.0183732
16 *286:13 *446:11 0.00100836
17 *326:13 *446:11 0
18 *326:21 *446:11 0.00534708
19 *423:13 *446:11 0.00561997
20 *443:15 *446:15 0.000691023
21 *444:11 *446:11 0.277686
22 *445:15 *874:gpio_in[14] 0.000110529
23 *445:15 *446:15 0.00275
*RES
1 gpio_in[14] *446:5 0.885733 
2 *446:5 *446:7 433.352 
3 *446:7 *446:9 8 
4 *446:9 *446:11 4466.55 
5 *446:11 *446:13 15 
6 *446:13 *446:15 53.9814 
7 *446:15 *874:gpio_in[14] 23.555 
*END

*D_NET *447 0.883697
*CONN
*P gpio_in[15] I
*I *874:gpio_in[15] I *D counter_gpio_config_example
*CAP
1 gpio_in[15] 7.84872e-05
2 *874:gpio_in[15] 0.000124135
3 *447:13 0.0366883
4 *447:11 0.0365641
5 *447:9 0.202257
6 *447:7 0.202335
7 *874:gpio_in[15] *874:gpio_in[16] 0
8 *447:9 *746:13 0
9 *447:13 *874:gpio_in[1] 0.00043067
10 *447:13 *448:9 0.164803
11 *447:13 *483:15 0.21411
12 *447:13 *683:9 0.000444215
13 *443:15 *447:13 0.0258622
*RES
1 gpio_in[15] *447:7 1.86429 
2 *447:7 *447:9 4693.33 
3 *447:9 *447:11 15 
4 *447:11 *447:13 2289.86 
5 *447:13 *874:gpio_in[15] 17.0093 
*END

*D_NET *448 0.756613
*CONN
*P gpio_in[16] I
*I *874:gpio_in[16] I *D counter_gpio_config_example
*CAP
1 gpio_in[16] 0.20244
2 *874:gpio_in[16] 0.000148762
3 *448:9 0.0343205
4 *448:7 0.0341717
5 *448:5 0.20244
6 *874:gpio_in[16] *874:gpio_in[17] 0
7 *448:9 *450:17 0.00271228
8 *448:9 *483:15 0.000171048
9 *448:9 *670:9 0.0902539
10 *448:9 *683:9 0.000994585
11 *874:gpio_in[15] *874:gpio_in[16] 0
12 *443:15 *448:9 0.0241573
13 *447:13 *448:9 0.164803
*RES
1 gpio_in[16] *448:5 4695.02 
2 *448:5 *448:7 15 
3 *448:7 *448:9 1766.27 
4 *448:9 *874:gpio_in[16] 17.3614 
*END

*D_NET *449 0.55355
*CONN
*P gpio_in[17] I
*I *874:gpio_in[17] I *D counter_gpio_config_example
*CAP
1 gpio_in[17] 0.00125911
2 *874:gpio_in[17] 0.000762292
3 *449:19 0.0704649
4 *449:17 0.0697026
5 *449:15 0.201029
6 *449:13 0.201029
7 *449:11 0.00125911
8 *874:gpio_in[17] *700:9 0.000871775
9 gpio_analog_en[17] *449:15 0.00631086
10 gpio_dm0[17] *449:15 0
11 *874:gpio_in[16] *874:gpio_in[17] 0
12 *95:13 *449:11 0.000861414
*RES
1 gpio_in[17] *449:11 40.665 
2 *449:11 *449:13 15 
3 *449:13 *449:15 4686.46 
4 *449:15 *449:17 15 
5 *449:17 *449:19 1468.74 
6 *449:19 *874:gpio_in[17] 34.0468 
*END

*D_NET *450 0.573245
*CONN
*P gpio_in[18] I
*I *874:gpio_in[18] I *D counter_gpio_config_example
*CAP
1 gpio_in[18] 0.00133601
2 *874:gpio_in[18] 0.000191544
3 *450:17 0.0267869
4 *450:15 0.0265954
5 *450:13 0.202572
6 *450:11 0.202572
7 *450:9 0.00133601
8 *874:gpio_in[18] *874:gpio_in[19] 0
9 *450:17 *567:15 0.0017039
10 *450:17 *567:21 0.00156204
11 *450:17 *567:23 0.0137229
12 *450:17 *670:9 0.0908801
13 *450:17 *683:9 0.000719351
14 *450:17 *815:15 0.000555221
15 gpio_analog_en[18] *450:13 0
16 gpio_dm1[18] *450:13 0
17 *448:9 *450:17 0.00271228
*RES
1 gpio_in[18] *450:9 43.5236 
2 *450:9 *450:11 15 
3 *450:11 *450:13 4688.93 
4 *450:13 *450:15 15 
5 *450:15 *450:17 1024.47 
6 *450:17 *874:gpio_in[18] 18.0657 
*END

*D_NET *451 0.612225
*CONN
*P gpio_in[19] I
*I *874:gpio_in[19] I *D counter_gpio_config_example
*CAP
1 gpio_in[19] 0.00318727
2 *874:gpio_in[19] 0.000127482
3 *451:25 0.0354303
4 *451:23 0.0369182
5 *451:13 0.221938
6 *451:11 0.220323
7 *451:9 0.0323467
8 *451:7 0.0323467
9 *451:5 0.00318727
10 *874:gpio_in[19] *874:gpio_in[1] 9.80974e-05
11 *451:13 *453:17 0
12 *451:13 *472:21 0.000358605
13 *451:13 *472:25 0.00557863
14 *451:23 *472:15 2.15996e-05
15 *451:23 *472:21 0.00121556
16 *451:25 *472:15 0.0191479
17 *874:gpio_in[18] *874:gpio_in[19] 0
18 *97:17 *451:9 0
19 *236:13 *451:9 0
20 *282:29 *451:13 0
*RES
1 gpio_in[19] *451:5 74.0225 
2 *451:5 *451:7 8 
3 *451:7 *451:9 93.9512 
4 *451:9 *451:11 8 
5 *451:11 *451:13 693.571 
6 *451:13 *451:23 6.4624 
7 *451:23 *451:25 134.071 
8 *451:25 *874:gpio_in[19] 17.6659 
*END

*D_NET *452 0.342935
*CONN
*P gpio_in[1] I
*I *874:gpio_in[1] I *D counter_gpio_config_example
*CAP
1 gpio_in[1] 0.000117954
2 *874:gpio_in[1] 0.00234551
3 *452:11 0.0111374
4 *452:9 0.00879189
5 *452:7 0.151451
6 *452:5 0.151569
7 *874:gpio_in[1] *874:gpio_in[20] 0
8 *874:gpio_in[1] *483:15 0.00054349
9 *874:gpio_in[1] *683:9 0.00377286
10 *452:7 *760:21 0
11 *452:11 *463:11 0
12 *452:11 *760:17 0.0119601
13 *874:gpio_in[11] *874:gpio_in[1] 0.000457309
14 *874:gpio_in[19] *874:gpio_in[1] 9.80974e-05
15 *443:15 *874:gpio_in[1] 0.000260477
16 *447:13 *874:gpio_in[1] 0.00043067
*RES
1 gpio_in[1] *452:5 0.452667 
2 *452:5 *452:7 440.565 
3 *452:7 *452:9 8 
4 *452:9 *452:11 294.536 
5 *452:11 *874:gpio_in[1] 25.54 
*END

*D_NET *453 0.616617
*CONN
*P gpio_in[20] I
*I *874:gpio_in[20] I *D counter_gpio_config_example
*CAP
1 gpio_in[20] 9.04367e-05
2 *874:gpio_in[20] 0.000145799
3 *453:17 0.193439
4 *453:15 0.193293
5 *453:13 0.0160747
6 *453:11 0.0160747
7 *453:9 0.00524641
8 *453:7 0.00533685
9 *874:gpio_in[20] *874:gpio_in[21] 0
10 *874:gpio_in[20] *683:9 4.86653e-05
11 *453:17 *454:13 0.0186248
12 *453:17 *472:15 0.00564393
13 *453:17 *472:21 0.00198667
14 *453:17 *472:25 0.00164765
15 *874:gpio_in[1] *874:gpio_in[20] 0
16 *240:21 *453:17 0.0564962
17 *282:29 *453:17 0.102469
18 *368:61 *453:13 0
19 *451:13 *453:17 0
*RES
1 gpio_in[20] *453:7 1.86429 
2 *453:7 *453:9 115.648 
3 *453:9 *453:11 8 
4 *453:11 *453:13 47.068 
5 *453:13 *453:15 8 
6 *453:15 *453:17 824.996 
7 *453:17 *874:gpio_in[20] 17.6659 
*END

*D_NET *454 0.672149
*CONN
*P gpio_in[21] I
*I *874:gpio_in[21] I *D counter_gpio_config_example
*CAP
1 gpio_in[21] 0.000134452
2 *874:gpio_in[21] 0.000121304
3 *454:13 0.168773
4 *454:11 0.168786
5 *874:gpio_in[21] *874:gpio_in[22] 0
6 *874:gpio_in[21] *683:9 2.60531e-05
7 *454:11 gpio_oeb[21] 0.000214251
8 *454:13 *455:13 0.0532119
9 *874:gpio_in[20] *874:gpio_in[21] 0
10 *95:13 *454:11 0.00020868
11 *238:29 *454:13 0.101883
12 *240:21 *454:13 0.160165
13 *453:17 *454:13 0.0186248
*RES
1 gpio_in[21] *454:11 17.8805 
2 *454:11 *454:13 845.813 
3 *454:13 *874:gpio_in[21] 17.58 
*END

*D_NET *455 0.687326
*CONN
*P gpio_in[22] I
*I *874:gpio_in[22] I *D counter_gpio_config_example
*CAP
1 gpio_in[22] 0.00208427
2 *874:gpio_in[22] 0.000145799
3 *455:13 0.18993
4 *455:11 0.189785
5 *455:9 0.0162522
6 *455:7 0.0162522
7 *455:5 0.00208427
8 *874:gpio_in[22] *874:gpio_in[23] 0
9 *874:gpio_in[22] *683:9 4.86653e-05
10 *455:9 *538:13 0
11 *455:13 *456:19 0.0245512
12 *874:gpio_in[21] *874:gpio_in[22] 0
13 *238:29 *455:13 0.19298
14 *454:13 *455:13 0.0532119
*RES
1 gpio_in[22] *455:5 45.1468 
2 *455:5 *455:7 8 
3 *455:7 *455:9 47.8408 
4 *455:9 *455:11 8 
5 *455:11 *455:13 837.943 
6 *455:13 *874:gpio_in[22] 17.6659 
*END

*D_NET *456 0.612376
*CONN
*P gpio_in[23] I
*I *874:gpio_in[23] I *D counter_gpio_config_example
*CAP
1 gpio_in[23] 0.00229431
2 *874:gpio_in[23] 0.000119947
3 *456:19 0.175237
4 *456:17 0.175117
5 *456:15 0.0332645
6 *456:13 0.0332645
7 *456:11 0.0484044
8 *456:9 0.0506988
9 *874:gpio_in[23] *683:9 2.60531e-05
10 *456:11 *665:30 0.0693988
11 *874:gpio_in[22] *874:gpio_in[23] 0
12 *108:25 *456:15 0
13 *455:13 *456:19 0.0245512
*RES
1 gpio_in[23] *456:9 49.8489 
2 *456:9 *456:11 1447.51 
3 *456:11 *456:13 8 
4 *456:13 *456:15 95.1533 
5 *456:15 *456:17 8 
6 *456:17 *456:19 576.46 
7 *456:19 *874:gpio_in[23] 17.58 
*END

*D_NET *457 0.771523
*CONN
*P gpio_in[24] I
*I *874:gpio_in[24] I *D counter_gpio_config_example
*CAP
1 gpio_in[24] 0.00441355
2 *874:gpio_in[24] 0.000667715
3 *457:23 0.0112095
4 *457:21 0.0105418
5 *457:19 0.0029129
6 *457:11 0.13164
7 *457:9 0.133141
8 *874:gpio_in[24] *874:gpio_in[25] 0
9 *457:9 gpio_slow_sel[24] 0
10 *457:11 *547:9 0.260385
11 *457:11 *550:9 0.0477033
12 *457:11 *731:21 0.0026239
13 *457:11 *765:21 0.0461492
14 *457:19 *458:19 0.00898296
15 *457:19 *460:19 0.000324747
16 *457:19 *461:19 0.00833284
17 *457:19 *462:19 0.000641803
18 *457:23 *458:23 0.0569041
19 *457:23 *461:19 0.000130115
20 *457:23 *462:19 0.000101624
21 *457:23 *669:9 0.0127722
22 *133:13 *457:23 0.000380568
23 *155:21 *457:23 0.00899621
24 *168:9 *457:19 2.33476e-05
25 *342:21 *457:23 3.95707e-06
26 *404:15 *457:23 0.0225412
27 *417:9 *457:11 0
*RES
1 gpio_in[24] *457:9 18.6633 
2 *457:9 *457:11 4561.8 
3 *457:11 *457:19 35.0101 
4 *457:19 *457:21 15 
5 *457:21 *457:23 621.408 
6 *457:23 *874:gpio_in[24] 25.1086 
*END

*D_NET *458 0.559248
*CONN
*P gpio_in[25] I
*I *874:gpio_in[25] I *D counter_gpio_config_example
*CAP
1 gpio_in[25] 0.00490118
2 *874:gpio_in[25] 0.000702056
3 *458:23 0.00893056
4 *458:21 0.0082285
5 *458:19 0.00280514
6 *458:11 0.149201
7 *458:9 0.151297
8 *458:9 gpio_slow_sel[25] 0
9 *458:11 *467:13 0
10 *458:11 *690:17 0
11 *458:11 *777:13 0
12 *458:11 *820:13 0.0903394
13 *458:19 *460:19 0.00971158
14 *458:19 *461:19 0.000361456
15 *458:23 *460:23 0.0556257
16 *458:23 *461:19 0.000741081
17 *874:gpio_in[24] *874:gpio_in[25] 0
18 *155:21 *458:23 0.0105164
19 *457:19 *458:19 0.00898296
20 *457:23 *458:23 0.0569041
*RES
1 gpio_in[25] *458:9 19.8841 
2 *458:9 *458:11 3682.15 
3 *458:11 *458:19 36.1524 
4 *458:19 *458:21 15 
5 *458:21 *458:23 610.45 
6 *458:23 *874:gpio_in[25] 25.4607 
*END

*D_NET *459 0.509688
*CONN
*P gpio_in[26] I
*I *874:gpio_in[26] I *D counter_gpio_config_example
*CAP
1 gpio_in[26] 0.00595082
2 *874:gpio_in[26] 0.00011681
3 *459:23 0.0121407
4 *459:21 0.0138055
5 *459:11 0.15212
6 *459:9 0.156289
7 *459:9 *767:17 0
8 *459:11 *538:9 0
9 *459:21 *460:19 0.00126918
10 *459:21 *726:19 0.00440327
11 *459:23 *469:23 0.0527303
12 *459:23 *483:15 0.00713718
13 *459:23 *670:9 0.00172726
14 *459:23 *683:9 0.00126649
15 *459:23 *690:13 0.00288769
16 *459:23 *700:9 0.00517406
17 *459:23 *726:9 0.00159405
18 *459:23 *730:9 0.000547972
19 *459:23 *730:17 0.000691066
20 *459:23 *731:9 0.0304296
21 *327:9 *459:11 0.0592918
22 *332:9 *459:11 0
23 *433:16 *459:23 0.000115593
*RES
1 gpio_in[26] *459:9 22.1241 
2 *459:9 *459:11 3457.48 
3 *459:11 *459:21 44.0177 
4 *459:21 *459:23 649.994 
5 *459:23 *874:gpio_in[26] 17.0093 
*END

*D_NET *460 0.457212
*CONN
*P gpio_in[27] I
*I *874:gpio_in[27] I *D counter_gpio_config_example
*CAP
1 gpio_in[27] 0.00214016
2 *874:gpio_in[27] 0.000739392
3 *460:23 0.00906579
4 *460:21 0.0083264
5 *460:19 0.0061449
6 *460:11 0.151121
7 *460:9 0.147116
8 *874:gpio_in[27] *874:gpio_in[28] 0
9 *460:19 *461:19 0.000143058
10 *460:19 *462:19 0.000531061
11 *460:19 *471:15 0.000382058
12 *460:19 *726:19 0.00169568
13 *460:19 *820:9 8.51007e-06
14 *460:19 *821:9 0.00031657
15 *460:23 *461:23 0.0527161
16 *460:23 *462:19 0.00957742
17 *123:9 *460:19 7.83044e-05
18 *309:13 *460:19 0.000178777
19 *457:19 *460:19 0.000324747
20 *458:19 *460:19 0.00971158
21 *458:23 *460:23 0.0556257
22 *459:21 *460:19 0.00126918
*RES
1 gpio_in[27] *460:9 12.7721 
2 *460:9 *460:11 3237.75 
3 *460:11 *460:19 44.9369 
4 *460:19 *460:21 15 
5 *460:21 *460:23 596.634 
6 *460:23 *874:gpio_in[27] 25.8129 
*END

*D_NET *461 0.420684
*CONN
*P gpio_in[28] I
*I *874:gpio_in[28] I *D counter_gpio_config_example
*CAP
1 gpio_in[28] 0.00559764
2 *874:gpio_in[28] 0.00076837
3 *461:23 0.0175039
4 *461:21 0.0167355
5 *461:19 0.00360898
6 *461:11 0.138404
7 *461:9 0.140393
8 *874:gpio_in[28] *874:gpio_in[29] 0
9 *461:9 gpio_slow_sel[28] 0
10 *461:9 *769:9 0
11 *461:19 *462:19 0.0123242
12 *461:23 *462:19 0.020512
13 *874:gpio_in[27] *874:gpio_in[28] 0
14 *133:13 *461:19 0.0020364
15 *155:19 *461:19 3.41998e-06
16 *309:13 *461:19 0.00035405
17 *332:9 *461:11 0
18 *384:9 *461:19 1.81615e-05
19 *457:19 *461:19 0.00833284
20 *457:23 *461:19 0.000130115
21 *458:19 *461:19 0.000361456
22 *458:23 *461:19 0.000741081
23 *460:19 *461:19 0.000143058
24 *460:23 *461:23 0.0527161
*RES
1 gpio_in[28] *461:9 21.3065 
2 *461:9 *461:11 3011.67 
3 *461:11 *461:19 40.5143 
4 *461:19 *461:21 15 
5 *461:21 *461:23 565.189 
6 *461:23 *874:gpio_in[28] 26.165 
*END

*D_NET *462 0.462567
*CONN
*P gpio_in[29] I
*I *874:gpio_in[29] I *D counter_gpio_config_example
*CAP
1 gpio_in[29] 0.00327154
2 *874:gpio_in[29] 0.00078002
3 *462:19 0.0230591
4 *462:17 0.022279
5 *462:15 0.122682
6 *462:13 0.125953
7 *874:gpio_in[29] *874:gpio_in[2] 0
8 *462:15 gpio_oeb[32] 0
9 *462:15 gpio_out[31] 0
10 *462:15 gpio_vtrip_sel[31] 0.00077867
11 *462:15 *558:20 0
12 *462:15 *559:9 0.000498887
13 *462:19 *674:9 0.00197062
14 *462:19 *726:19 0
15 *462:19 *813:9 0.0492965
16 *462:19 *827:9 0.0146669
17 gpio_analog_en[30] *462:15 0.000224793
18 gpio_analog_sel[30] *462:15 0.000115147
19 gpio_dm1[29] *462:13 0.000334432
20 gpio_holdover[30] *462:15 0.000224793
21 gpio_holdover[33] *462:15 0.000115147
22 *874:gpio_in[28] *874:gpio_in[29] 0
23 *115:17 *462:15 0.000169974
24 *133:13 *462:19 3.04773e-05
25 *155:21 *462:19 0.0523131
26 *249:17 *462:15 0.000115147
27 *457:19 *462:19 0.000641803
28 *457:23 *462:19 0.000101624
29 *460:19 *462:19 0.000531061
30 *460:23 *462:19 0.00957742
31 *461:19 *462:19 0.0123242
32 *461:23 *462:19 0.020512
*RES
1 gpio_in[29] *462:13 49.1517 
2 *462:13 *462:15 2754.59 
3 *462:15 *462:17 8 
4 *462:17 *462:19 134.094 
5 *462:19 *874:gpio_in[29] 19.3411 
*END

*D_NET *463 0.388315
*CONN
*P gpio_in[2] I
*I *874:gpio_in[2] I *D counter_gpio_config_example
*CAP
1 gpio_in[2] 0.000270797
2 *874:gpio_in[2] 0.00314711
3 *463:11 0.0194498
4 *463:9 0.0163027
5 *463:7 0.144811
6 *463:5 0.145082
7 *874:gpio_in[2] *874:gpio_in[30] 0
8 *874:gpio_in[2] *874:gpio_in[3] 0.00371293
9 *874:gpio_in[2] *683:9 0.000110291
10 *874:gpio_in[2] *760:13 4.1352e-05
11 *874:gpio_in[2] *771:9 0.00701344
12 *874:gpio_in[2] *782:25 0.000598599
13 *463:7 *557:11 0.000160225
14 *463:11 *549:13 0
15 *463:11 *557:13 1.61501e-05
16 *874:gpio_in[0] *463:7 0
17 *874:gpio_in[29] *874:gpio_in[2] 0
18 *126:13 *463:11 0.0277403
19 *335:13 *463:11 0.00208049
20 *337:13 *463:11 0.0014186
21 *345:9 *463:7 0
22 *394:9 *463:7 0.0163597
23 *422:13 *463:11 0
24 *452:11 *463:11 0
*RES
1 gpio_in[2] *463:5 1.0724 
2 *463:5 *463:7 439.792 
3 *463:7 *463:9 8 
4 *463:9 *463:11 527.655 
5 *463:11 *874:gpio_in[2] 36.446 
*END

*D_NET *464 0.43577
*CONN
*P gpio_in[30] I
*I *874:gpio_in[30] I *D counter_gpio_config_example
*CAP
1 gpio_in[30] 0.0065946
2 *874:gpio_in[30] 0.000126302
3 *464:19 0.0963781
4 *464:17 0.0962518
5 *464:15 0.0442246
6 *464:13 0.0442246
7 *464:11 0.0189177
8 *464:9 0.0255123
9 *874:gpio_in[30] *874:gpio_in[31] 0
10 *874:gpio_in[30] *683:9 2.60531e-05
11 *464:19 *465:19 0.0113481
12 *464:19 *465:25 0.005798
13 *464:19 *465:27 0.0178739
14 *464:19 *467:19 0
15 *874:gpio_in[2] *874:gpio_in[30] 0
16 *146:29 *464:19 0.0116448
17 *285:9 *464:11 0.00260774
18 *361:9 *464:11 0
19 *414:9 *464:11 0.054241
*RES
1 gpio_in[30] *464:9 23.1695 
2 *464:9 *464:11 690.345 
3 *464:11 *464:13 8 
4 *464:13 *464:15 121.257 
5 *464:15 *464:17 8 
6 *464:17 *464:19 336.937 
7 *464:19 *874:gpio_in[30] 17.58 
*END

*D_NET *465 0.408322
*CONN
*P gpio_in[31] I
*I *874:gpio_in[31] I *D counter_gpio_config_example
*CAP
1 gpio_in[31] 0.000306682
2 *874:gpio_in[31] 0.000155135
3 *465:27 0.0305476
4 *465:25 0.037355
5 *465:19 0.0285717
6 *465:17 0.0216092
7 *465:15 0.0247876
8 *465:13 0.0247876
9 *465:11 0.0285069
10 *465:9 0.0285069
11 *465:7 0.026318
12 *465:5 0.0266246
13 *874:gpio_in[31] *874:gpio_in[32] 0
14 *874:gpio_in[31] *683:9 4.86653e-05
15 *465:7 gpio_slow_sel[31] 0
16 *465:7 *773:17 0
17 *465:11 *667:5 0
18 *465:11 *721:13 0.0817365
19 *465:15 *481:17 0
20 *465:19 *466:19 0.00231682
21 *465:19 *467:19 0
22 *465:19 *542:25 0.00585108
23 *465:25 *466:19 0
24 *465:25 *466:25 0
25 *465:25 *466:27 0
26 *465:27 *466:27 0.00527141
27 *874:gpio_in[30] *874:gpio_in[31] 0
28 *464:19 *465:19 0.0113481
29 *464:19 *465:25 0.005798
30 *464:19 *465:27 0.0178739
*RES
1 gpio_in[31] *465:5 1.17693 
2 *465:5 *465:7 67.7339 
3 *465:7 *465:9 8 
4 *465:9 *465:11 1040.38 
5 *465:11 *465:13 8 
6 *465:13 *465:15 67.9336 
7 *465:15 *465:17 8 
8 *465:17 *465:19 80.5504 
9 *465:19 *465:25 27.5595 
10 *465:25 *465:27 125.055 
11 *465:27 *874:gpio_in[31] 17.6659 
*END

*D_NET *466 0.306011
*CONN
*P gpio_in[32] I
*I *874:gpio_in[32] I *D counter_gpio_config_example
*CAP
1 gpio_in[32] 0.000166595
2 *874:gpio_in[32] 0.000126302
3 *466:27 0.0329344
4 *466:25 0.0352731
5 *466:19 0.0190983
6 *466:17 0.0240902
7 *466:11 0.0233852
8 *466:9 0.0159283
9 *466:7 0.0431014
10 *466:5 0.043268
11 *874:gpio_in[32] *874:gpio_in[33] 0
12 *874:gpio_in[32] *683:9 2.60531e-05
13 *466:7 *754:17 0.000677648
14 *466:7 *774:9 0
15 *466:11 *765:13 0.00744707
16 *466:11 *766:5 0.0208913
17 *466:17 *536:13 0
18 *466:17 *803:9 0
19 *466:19 *467:19 0.00921694
20 *466:25 *467:19 0.00364674
21 *466:27 *467:19 0.0191457
22 *874:gpio_in[31] *874:gpio_in[32] 0
23 *465:19 *466:19 0.00231682
24 *465:25 *466:19 0
25 *465:25 *466:25 0
26 *465:25 *466:27 0
27 *465:27 *466:27 0.00527141
*RES
1 gpio_in[32] *466:5 0.639333 
2 *466:5 *466:7 114.016 
3 *466:7 *466:9 8 
4 *466:9 *466:11 518.499 
5 *466:11 *466:17 36.9645 
6 *466:17 *466:19 65.0683 
7 *466:19 *466:25 9.87093 
8 *466:25 *466:27 134.071 
9 *466:27 *874:gpio_in[32] 17.58 
*END

*D_NET *467 0.284457
*CONN
*P gpio_in[33] I
*I *874:gpio_in[33] I *D counter_gpio_config_example
*CAP
1 gpio_in[33] 0.00541546
2 *874:gpio_in[33] 0.000155135
3 *467:19 0.0673225
4 *467:17 0.0671674
5 *467:15 0.0438534
6 *467:13 0.0492688
7 *874:gpio_in[33] *874:gpio_in[34] 0
8 *874:gpio_in[33] *683:9 4.86653e-05
9 *467:13 *548:9 0
10 *467:13 *818:9 2.65532e-05
11 *467:15 *746:9 0.00871399
12 *467:15 *775:19 0.000711549
13 *467:19 *468:19 0.00922478
14 gpio_dm1[33] *467:15 0.000539352
15 *874:gpio_in[32] *874:gpio_in[33] 0
16 *373:15 *467:15 0
17 *458:11 *467:13 0
18 *464:19 *467:19 0
19 *465:19 *467:19 0
20 *466:19 *467:19 0.00921694
21 *466:25 *467:19 0.00364674
22 *466:27 *467:19 0.0191457
*RES
1 gpio_in[33] *467:13 44.2176 
2 *467:13 *467:15 124.176 
3 *467:15 *467:17 8 
4 *467:17 *467:19 258.492 
5 *467:19 *874:gpio_in[33] 17.6659 
*END

*D_NET *468 0.262511
*CONN
*P gpio_in[34] I
*I *874:gpio_in[34] I *D counter_gpio_config_example
*CAP
1 gpio_in[34] 0.000289171
2 *874:gpio_in[34] 0.000122894
3 *468:19 0.0682931
4 *468:17 0.0681702
5 *468:15 0.0197404
6 *468:13 0.0198507
7 *468:7 0.0268639
8 *468:5 0.0270428
9 *874:gpio_in[34] *683:9 2.60531e-05
10 *468:7 gpio_slow_sel[34] 0
11 *468:7 *776:9 0
12 *468:13 *721:13 0
13 *468:13 *789:5 0.000286761
14 *468:15 *568:9 0.0224261
15 *468:15 *776:9 5.83807e-05
16 *874:gpio_in[33] *874:gpio_in[34] 0
17 *190:33 *468:19 0.000116093
18 *467:19 *468:19 0.00922478
*RES
1 gpio_in[34] *468:5 1.10973 
2 *468:5 *468:7 67.0469 
3 *468:7 *468:13 19.6664 
4 *468:13 *468:15 66.7315 
5 *468:15 *468:17 8 
6 *468:17 *468:19 219.778 
7 *468:19 *874:gpio_in[34] 17.58 
*END

*D_NET *469 0.248618
*CONN
*P gpio_in[35] I
*I *874:gpio_in[35] I *D counter_gpio_config_example
*CAP
1 gpio_in[35] 0.0102511
2 *874:gpio_in[35] 0.000139581
3 *469:23 0.00883333
4 *469:21 0.0110324
5 *469:11 0.0458133
6 *469:9 0.0537258
7 *469:21 *690:13 0.000496759
8 *469:21 *726:9 0.000110155
9 *469:21 *730:17 0.00334842
10 *469:21 *778:13 0
11 *469:23 *567:15 0.00583517
12 *469:23 *670:9 0.0111936
13 *469:23 *683:9 0.0021167
14 *469:23 *690:13 0.00501428
15 *469:23 *727:19 0.000315681
16 *469:23 *730:9 0.025125
17 *123:9 *469:21 3.05864e-05
18 *150:9 *469:11 0.0125063
19 *183:9 *469:11 0
20 *191:9 *469:11 0
21 *272:9 *469:11 0
22 *314:9 *469:11 0
23 *459:23 *469:23 0.0527303
*RES
1 gpio_in[35] *469:9 31.2148 
2 *469:9 *469:11 1001.64 
3 *469:11 *469:21 40.4963 
4 *469:21 *469:23 566.619 
5 *469:23 *874:gpio_in[35] 17.3614 
*END

*D_NET *470 0.243396
*CONN
*P gpio_in[36] I
*I *874:gpio_in[36] I *D counter_gpio_config_example
*CAP
1 gpio_in[36] 0.0131998
2 *874:gpio_in[36] 0.000432922
3 *470:15 0.0180501
4 *470:13 0.0176172
5 *470:11 0.0173565
6 *470:9 0.0305563
7 *874:gpio_in[36] *874:gpio_in[37] 0
8 *470:11 *731:17 0
9 *470:11 *821:13 0.031433
10 *470:15 *874:gpio_in[3] 0.000933538
11 *470:15 *471:15 0.00453505
12 *470:15 *690:11 5.93445e-05
13 *470:15 *690:13 0.000885605
14 *470:15 *738:13 0.00814312
15 *470:15 *771:9 0.00343136
16 *470:15 *777:9 0.000453448
17 *470:15 *778:11 0.0200755
18 *470:15 *782:15 0.0031581
19 *470:15 *820:9 0.00303736
20 *470:15 *821:9 0.0430872
21 *95:9 *470:11 0.0166331
22 *96:9 *470:11 0.00414709
23 *197:9 *470:11 0.00160335
24 *249:9 *470:11 0.00358146
25 *274:9 *470:11 0
26 *325:9 *470:11 0.000985806
*RES
1 gpio_in[36] *470:9 37.5764 
2 *470:9 *470:11 784.719 
3 *470:11 *470:13 8 
4 *470:13 *470:15 103.268 
5 *470:15 *874:gpio_in[36] 14.4111 
*END

*D_NET *471 0.207265
*CONN
*P gpio_in[37] I
*I *874:gpio_in[37] I *D counter_gpio_config_example
*CAP
1 gpio_in[37] 0.00958258
2 *874:gpio_in[37] 0.000513051
3 *471:15 0.0189285
4 *471:13 0.0184154
5 *471:11 0.01932
6 *471:9 0.0289026
7 *874:gpio_in[37] *874:gpio_in[39] 0
8 *471:9 gpio_slow_sel[37] 0.0153457
9 *471:11 *731:17 0
10 *471:15 *874:gpio_in[3] 0.000640453
11 *471:15 *821:9 0.0425472
12 *874:gpio_in[36] *874:gpio_in[37] 0
13 *123:9 *471:11 0
14 *154:9 *471:11 0.00219857
15 *155:19 *471:15 0.000290427
16 *157:7 *471:9 0.000994814
17 *204:9 *471:11 0.00264195
18 *274:9 *471:11 0
19 *309:9 *471:11 0.00132866
20 *309:13 *471:15 0.0252707
21 *342:13 *471:15 4.81059e-05
22 *377:9 *471:11 0.015379
23 *460:19 *471:15 0.000382058
24 *470:15 *471:15 0.00453505
*RES
1 gpio_in[37] *471:9 39.5401 
2 *471:9 *471:11 557.235 
3 *471:11 *471:13 8 
4 *471:13 *471:15 101.636 
5 *471:15 *874:gpio_in[37] 15.8196 
*END

*D_NET *472 0.161983
*CONN
*P gpio_in[38] I
*I *874:gpio_in[38] I *D counter_gpio_config_example
*CAP
1 gpio_in[38] 0.000220664
2 *874:gpio_in[38] 0.00103095
3 *472:25 0.0100049
4 *472:21 0.0124259
5 *472:15 0.0389358
6 *472:13 0.0373601
7 *472:7 0.0111415
8 *472:5 0.00948601
9 *874:gpio_in[38] *740:18 0.000596371
10 *874:gpio_in[38] *826:14 0.00103312
11 *472:7 gpio_slow_sel[38] 0
12 *472:13 *477:11 0.000619273
13 *410:19 *874:gpio_in[38] 0.00274466
14 *428:15 *472:13 0.00078315
15 *451:13 *472:21 0.000358605
16 *451:13 *472:25 0.00557863
17 *451:23 *472:15 2.15996e-05
18 *451:23 *472:21 0.00121556
19 *451:25 *472:15 0.0191479
20 *453:17 *472:15 0.00564393
21 *453:17 *472:21 0.00198667
22 *453:17 *472:25 0.00164765
*RES
1 gpio_in[38] *472:5 5.33393 
2 *472:5 *472:7 206.708 
3 *472:7 *472:13 23.0541 
4 *472:13 *472:15 140.545 
5 *472:15 *472:21 14.6795 
6 *472:21 *472:25 46.2107 
7 *472:25 *874:gpio_in[38] 5.36293 
*END

*D_NET *473 0.114702
*CONN
*P gpio_in[39] I
*I *874:gpio_in[39] I *D counter_gpio_config_example
*CAP
1 gpio_in[39] 0.000266939
2 *874:gpio_in[39] 0.00511911
3 *473:13 0.00511911
4 *473:11 0.0287084
5 *473:9 0.0287084
6 *473:7 0.00629317
7 *473:5 0.00656011
8 *874:gpio_in[39] *874:gpio_in[3] 0
9 *473:11 *741:9 0
10 *874:gpio_in[37] *874:gpio_in[39] 0
11 *258:17 *473:11 0.0339267
*RES
1 gpio_in[39] *473:5 6.4525 
2 *473:5 *473:7 139.801 
3 *473:7 *473:9 8 
4 *473:9 *473:11 104.556 
5 *473:11 *473:13 8 
6 *473:13 *874:gpio_in[39] 104.307 
*END

*D_NET *474 0.468471
*CONN
*P gpio_in[3] I
*I *874:gpio_in[3] I *D counter_gpio_config_example
*CAP
1 gpio_in[3] 0.000224965
2 *874:gpio_in[3] 0.00544793
3 *474:11 0.022888
4 *474:9 0.0174401
5 *474:7 0.143819
6 *474:5 0.144044
7 *874:gpio_in[3] *874:gpio_in[40] 0
8 *874:gpio_in[3] *683:9 0
9 *874:gpio_in[3] *771:9 0.000632457
10 *474:11 *672:13 0.0298135
11 *474:11 *782:29 0.0589506
12 *874:gpio_in[2] *874:gpio_in[3] 0.00371293
13 *874:gpio_in[39] *874:gpio_in[3] 0
14 *254:11 *474:7 0.00294875
15 *278:13 *474:11 0
16 *309:13 *874:gpio_in[3] 0.00309399
17 *315:9 *474:7 0
18 *319:9 *474:7 0.03388
19 *470:15 *874:gpio_in[3] 0.000933538
20 *471:15 *874:gpio_in[3] 0.000640453
*RES
1 gpio_in[3] *474:5 0.863333 
2 *474:5 *474:7 438.418 
3 *474:7 *474:9 8 
4 *474:9 *474:11 764.295 
5 *474:11 *874:gpio_in[3] 45.2391 
*END

*D_NET *475 0.174301
*CONN
*P gpio_in[40] I
*I *874:gpio_in[40] I *D counter_gpio_config_example
*CAP
1 gpio_in[40] 0.000181245
2 *874:gpio_in[40] 0.00578353
3 *475:13 0.00578353
4 *475:11 0.0387872
5 *475:9 0.0387872
6 *475:7 0.00582521
7 *475:5 0.00600646
8 *874:gpio_in[40] *874:gpio_in[41] 0
9 *874:gpio_in[40] *738:13 7.45617e-05
10 *475:11 *560:15 0
11 *874:gpio_in[3] *874:gpio_in[40] 0
12 *213:17 *475:11 0.0654729
13 *384:13 *475:11 0.00759964
14 *390:17 *475:11 0
*RES
1 gpio_in[40] *475:5 4.38107 
2 *475:5 *475:7 125.715 
3 *475:7 *475:9 8 
4 *475:9 *475:11 157.278 
5 *475:11 *475:13 8 
6 *475:13 *874:gpio_in[40] 118.393 
*END

*D_NET *476 0.164191
*CONN
*P gpio_in[41] I
*I *874:gpio_in[41] I *D counter_gpio_config_example
*CAP
1 gpio_in[41] 9.55497e-05
2 *874:gpio_in[41] 0.00889462
3 *476:13 0.00889462
4 *476:11 0.0707586
5 *476:9 0.0707586
6 *476:7 0.00234674
7 *476:5 0.00244228
8 *874:gpio_in[41] *874:gpio_in[42] 0
9 *476:11 *566:10 0
10 *476:11 *824:16 0
11 *476:11 *830:9 0
12 *874:gpio_in[40] *874:gpio_in[41] 0
13 *121:17 *476:11 0
*RES
1 gpio_in[41] *476:5 2.30964 
2 *476:5 *476:7 53.1736 
3 *476:7 *476:9 8 
4 *476:9 *476:11 209.399 
5 *476:11 *476:13 8 
6 *476:13 *874:gpio_in[41] 190.934 
*END

*D_NET *477 0.209631
*CONN
*P gpio_in[42] I
*I *874:gpio_in[42] I *D counter_gpio_config_example
*CAP
1 gpio_in[42] 9.8549e-06
2 *874:gpio_in[42] 0.00196459
3 *477:11 0.0901209
4 *477:9 0.0881563
5 *477:7 0.00913827
6 *477:5 0.00914812
7 *874:gpio_in[42] *874:gpio_in[43] 0
8 *477:11 *695:14 0
9 *477:11 *711:17 0.0104735
10 *477:11 *717:9 0
11 *874:gpio_in[41] *874:gpio_in[42] 0
12 *388:17 *477:11 0
13 *428:15 *477:11 0
14 *472:13 *477:11 0.000619273
*RES
1 gpio_in[42] *477:5 0.238214 
2 *477:5 *477:7 210.229 
3 *477:7 *477:9 8 
4 *477:9 *477:11 261.52 
5 *477:11 *874:gpio_in[42] 41.8782 
*END

*D_NET *478 0.234046
*CONN
*P gpio_in[43] I
*I *874:gpio_in[43] I *D counter_gpio_config_example
*CAP
1 gpio_in[43] 0.000427361
2 *874:gpio_in[43] 0.0107623
3 *478:11 0.0107623
4 *478:9 0.104061
5 *478:7 0.104488
6 *874:gpio_in[43] *874:gpio_in[4] 0
7 *478:9 *565:13 0
8 *478:9 *828:13 0
9 gpio_dm0[41] *478:9 5.53098e-05
10 gpio_ib_mode_sel[39] *478:9 0
11 *874:gpio_in[42] *874:gpio_in[43] 0
12 *257:17 *478:9 0.00348915
13 *345:21 *478:9 0
*RES
1 gpio_in[43] *478:7 18.1396 
2 *478:7 *478:9 313.298 
3 *478:9 *478:11 8 
4 *478:11 *874:gpio_in[43] 233.895 
*END

*D_NET *479 0.599187
*CONN
*P gpio_in[4] I
*I *874:gpio_in[4] I *D counter_gpio_config_example
*CAP
1 gpio_in[4] 0.000118076
2 *874:gpio_in[4] 0.000312441
3 *479:15 0.0030232
4 *479:13 0.00271076
5 *479:11 0.0320987
6 *479:9 0.0320987
7 *479:7 0.0960344
8 *479:5 0.0961525
9 *874:gpio_in[4] *874:gpio_in[5] 0
10 *479:11 *531:13 0.000430772
11 *479:11 *533:13 0.00292544
12 *479:11 *561:13 0.00676221
13 *479:11 *716:23 0.0495882
14 *479:15 *567:21 0.000881029
15 *479:15 *567:23 0.000594578
16 *479:15 *727:21 0.0116374
17 *479:15 *738:17 0.0129618
18 *479:15 *771:9 0.00151516
19 *874:gpio_in[43] *874:gpio_in[4] 0
20 *148:13 *479:11 0
21 *149:13 *479:11 0
22 *205:13 *479:11 0
23 *216:9 *479:7 0.0357358
24 *282:13 *479:11 0
25 *351:9 *479:7 0.213606
*RES
1 gpio_in[4] *479:5 0.4676 
2 *479:5 *479:7 434.64 
3 *479:7 *479:9 8 
4 *479:9 *479:11 996.885 
5 *479:11 *479:13 15 
6 *479:13 *479:15 160.225 
7 *479:15 *874:gpio_in[4] 19.4743 
*END

*D_NET *480 0.470879
*CONN
*P gpio_in[5] I
*I *874:gpio_in[5] I *D counter_gpio_config_example
*CAP
1 gpio_in[5] 0.004473
2 *874:gpio_in[5] 0.000155135
3 *480:19 0.0615374
4 *480:17 0.0613823
5 *480:15 0.157322
6 *480:13 0.157322
7 *480:11 0.00265638
8 *480:9 0.00712938
9 *874:gpio_in[5] *874:gpio_in[6] 0
10 *874:gpio_in[5] *683:9 4.86653e-05
11 *480:9 *568:9 0
12 *480:11 *700:13 0.00766046
13 *480:19 *481:19 0.00207889
14 *480:19 *481:25 0.0038433
15 *480:19 *481:27 0.00526961
16 *874:gpio_in[4] *874:gpio_in[5] 0
17 *228:13 *480:15 0
18 *229:13 *480:15 0
*RES
1 gpio_in[5] *480:9 18.5569 
2 *480:9 *480:11 97.3364 
3 *480:11 *480:13 8 
4 *480:13 *480:15 454.677 
5 *480:15 *480:17 8 
6 *480:17 *480:19 202.895 
7 *480:19 *874:gpio_in[5] 17.6659 
*END

*D_NET *481 0.493856
*CONN
*P gpio_in[6] I
*I *874:gpio_in[6] I *D counter_gpio_config_example
*CAP
1 gpio_in[6] 0.000228856
2 *874:gpio_in[6] 0.000122894
3 *481:27 0.0380537
4 *481:25 0.0452013
5 *481:19 0.0335954
6 *481:17 0.03781
7 *481:11 0.0184618
8 *481:9 0.0069767
9 *481:7 0.149854
10 *481:5 0.150082
11 *874:gpio_in[6] *683:9 2.60531e-05
12 *481:7 *668:9 0
13 *481:11 *531:13 0.00200675
14 *481:11 *533:21 0
15 *874:gpio_in[5] *874:gpio_in[6] 0
16 *122:193 *481:25 0.000244886
17 *149:13 *481:11 0
18 *465:15 *481:17 0
19 *480:19 *481:19 0.00207889
20 *480:19 *481:25 0.0038433
21 *480:19 *481:27 0.00526961
*RES
1 gpio_in[6] *481:5 0.878267 
2 *481:5 *481:7 434.64 
3 *481:7 *481:9 8 
4 *481:9 *481:11 161.426 
5 *481:11 *481:17 46.0664 
6 *481:17 *481:19 81.8197 
7 *481:19 *481:25 27.5595 
8 *481:25 *481:27 125.055 
9 *481:27 *874:gpio_in[6] 17.58 
*END

*D_NET *482 0.864162
*CONN
*P gpio_in[7] I
*I *874:gpio_in[7] I *D counter_gpio_config_example
*CAP
1 gpio_in[7] 0.0032603
2 *874:gpio_in[7] 0.00055135
3 *482:15 0.0316566
4 *482:13 0.0311053
5 *482:11 0.0870714
6 *482:9 0.0903317
7 *482:9 gpio_slow_sel[7] 0
8 *482:9 *790:9 0
9 *482:11 *744:13 0.10029
10 *482:15 *484:15 0.236464
11 *309:13 *482:15 0.0456416
12 *342:21 *482:15 0.23779
*RES
1 gpio_in[7] *482:9 15.1335 
2 *482:9 *482:11 2387.85 
3 *482:11 *482:13 15 
4 *482:13 *482:15 2542.84 
5 *482:15 *874:gpio_in[7] 23.7 
*END

*D_NET *483 1.03025
*CONN
*P gpio_in[8] I
*I *874:gpio_in[8] I *D counter_gpio_config_example
*CAP
1 gpio_in[8] 0.00439756
2 *874:gpio_in[8] 8.72178e-05
3 *483:15 0.0334456
4 *483:13 0.0333584
5 *483:11 0.037709
6 *483:9 0.0421066
7 *483:11 *484:11 0.204995
8 *483:11 *700:13 0.102129
9 *483:11 *835:21 0.0678118
10 *483:15 *670:9 0.00121981
11 *483:15 *683:9 0.000298112
12 *483:15 *700:9 0.236703
13 *874:gpio_in[1] *483:15 0.00054349
14 *89:13 *483:11 0.00967927
15 *188:13 *483:11 0.000927717
16 *348:13 *483:11 0.000849018
17 *435:15 *483:11 0.00279855
18 *443:15 *483:15 0.0297715
19 *447:13 *483:15 0.21411
20 *448:9 *483:15 0.000171048
21 *459:23 *483:15 0.00713718
*RES
1 gpio_in[8] *483:9 18.5569 
2 *483:9 *483:11 2609.7 
3 *483:11 *483:13 15 
4 *483:13 *483:15 2532.36 
5 *483:15 *874:gpio_in[8] 16.6571 
*END

*D_NET *484 0.969366
*CONN
*P gpio_in[9] I
*I *874:gpio_in[9] I *D counter_gpio_config_example
*CAP
1 gpio_in[9] 0.00426745
2 *874:gpio_in[9] 0.000567544
3 *484:15 0.0435076
4 *484:13 0.04294
5 *484:11 0.0812322
6 *484:9 0.0854997
7 *484:9 gpio_slow_sel[9] 0
8 *484:11 *835:21 0.00288341
9 *89:13 *484:11 0.0113163
10 *309:13 *484:15 0.0676076
11 *342:21 *484:15 0.000344524
12 *348:13 *484:11 0.0195174
13 *404:15 *484:15 0.168223
14 *482:15 *484:15 0.236464
15 *483:11 *484:11 0.204995
*RES
1 gpio_in[9] *484:9 18.1201 
2 *484:9 *484:11 2853.03 
3 *484:11 *484:13 15 
4 *484:13 *484:15 2535.22 
5 *484:15 *874:gpio_in[9] 24.0521 
*END

*D_NET *529 0.551029
*CONN
*P gpio_inp_dis[0] O
*I *874:gpio_inp_dis[0] O *D counter_gpio_config_example
*CAP
1 gpio_inp_dis[0] 0.00158995
2 *874:gpio_inp_dis[0] 0.00385628
3 *529:17 0.00519255
4 *529:15 0.0036026
5 *529:13 0.13804
6 *529:11 0.13804
7 *529:9 0.0205965
8 *529:7 0.0244528
9 *529:9 *691:13 0
10 *529:13 *564:10 0
11 *529:13 *674:9 0.0312771
12 *529:13 *701:9 0.0561284
13 *529:13 *714:15 8.34672e-05
14 *529:13 *813:9 0.00542733
15 *529:13 *819:9 0.0257689
16 *529:13 *827:9 0.0353258
17 *529:13 *832:9 0
18 *529:17 *833:13 0
19 gpio_analog_pol[0] gpio_inp_dis[0] 0.000926129
20 *133:13 *529:13 2.33576e-05
21 *133:17 *529:17 0.00391777
22 *155:21 *529:13 0.0321051
23 *168:9 *529:9 0.0228516
24 *173:7 *529:7 0.000635578
25 *207:7 *529:7 0.000635578
26 *309:17 *529:17 0
27 *349:9 *529:9 0.000553709
*RES
1 *874:gpio_inp_dis[0] *529:7 17.5163 
2 *529:7 *529:9 608.648 
3 *529:9 *529:11 8 
4 *529:11 *529:13 559.306 
5 *529:13 *529:15 8 
6 *529:15 *529:17 107.196 
7 *529:17 gpio_inp_dis[0] 12.1767 
*END

*D_NET *530 0.593894
*CONN
*P gpio_inp_dis[10] O
*I *874:gpio_inp_dis[10] O *D counter_gpio_config_example
*CAP
1 gpio_inp_dis[10] 2.74822e-05
2 *874:gpio_inp_dis[10] 0.0001692
3 *530:17 0.0953258
4 *530:15 0.0952983
5 *530:13 0.143859
6 *530:11 0.143859
7 *530:9 0.0503616
8 *530:7 0.0505308
9 gpio_analog_pol[10] *530:17 0
10 *138:7 *530:7 0
11 *138:7 *530:9 0
12 *138:9 *530:9 0
13 *178:21 *530:17 0
14 *181:7 *530:7 4.4107e-05
15 *181:9 *530:7 6.72295e-06
16 *181:9 *530:9 0.0143798
17 *222:17 *530:17 0
18 *236:7 *530:7 3.17555e-05
*RES
1 *874:gpio_inp_dis[10] *530:7 0.662667 
2 *530:7 *530:9 163.89 
3 *530:9 *530:11 8 
4 *530:11 *530:13 447.877 
5 *530:13 *530:15 8 
6 *530:15 *530:17 277.633 
7 *530:17 gpio_inp_dis[10] 0.105467 
*END

*D_NET *531 0.796358
*CONN
*P gpio_inp_dis[11] O
*I *874:gpio_inp_dis[11] O *D counter_gpio_config_example
*CAP
1 gpio_inp_dis[11] 0.00347096
2 *874:gpio_inp_dis[11] 0.00328706
3 *531:17 0.105271
4 *531:15 0.1018
5 *531:13 0.101467
6 *531:11 0.104754
7 *531:13 *716:23 0.000372507
8 *106:11 *531:11 0.000356219
9 *109:13 *531:13 0
10 *135:15 gpio_inp_dis[11] 0.000762932
11 *135:15 *531:17 0.221379
12 *148:11 *531:11 0
13 *156:13 *531:13 0.118517
14 *313:9 *531:11 0
15 *326:21 *531:13 0
16 *415:13 *531:13 0.0324154
17 *427:11 *531:11 6.64787e-05
18 *479:11 *531:13 0.000430772
19 *481:11 *531:13 0.00200675
*RES
1 *874:gpio_inp_dis[11] *531:11 15.2026 
2 *531:11 *531:13 436.58 
3 *531:13 *531:15 8 
4 *531:15 *531:17 427.157 
5 *531:17 gpio_inp_dis[11] 8.44947 
*END

*D_NET *532 0.812208
*CONN
*P gpio_inp_dis[12] O
*I *874:gpio_inp_dis[12] O *D counter_gpio_config_example
*CAP
1 gpio_inp_dis[12] 8.58514e-05
2 *874:gpio_inp_dis[12] 0.00588545
3 *532:23 0.191258
4 *532:21 0.191173
5 *532:19 0.0862478
6 *532:17 0.0921332
7 *532:17 *534:12 0.000139852
8 *532:17 *571:12 0.000139852
9 *532:17 *664:18 0.000310367
10 *532:17 *665:14 0.000835694
11 *532:17 *665:22 0.000310367
12 gpio_analog_pol[12] *532:23 0.000493844
13 *129:9 *532:17 0.00360762
14 *129:9 *532:19 0.00230906
15 *139:9 *532:19 0
16 *142:9 *532:19 0.0292765
17 *143:9 *532:19 0.00336262
18 *144:8 *532:17 0.000495811
19 *147:19 *532:19 0.00157665
20 *190:9 *532:19 0.000981058
21 *224:13 *532:23 0
22 *225:9 *532:19 0
23 *266:9 *532:17 0
24 *271:7 *532:17 0.000186094
25 *288:7 *532:17 1.69644e-05
26 *302:9 *532:19 0.00173166
27 *309:7 *532:17 0.000105861
28 *324:17 *532:19 0.194804
29 *344:17 *532:17 1.71885e-06
30 *391:9 *532:19 0.00473971
31 *433:10 *532:17 0
*RES
1 *874:gpio_inp_dis[12] *532:17 43.3349 
2 *532:17 *532:19 3081.4 
3 *532:19 *532:21 8 
4 *532:21 *532:23 554.596 
5 *532:23 gpio_inp_dis[12] 0.329467 
*END

*D_NET *533 0.844914
*CONN
*P gpio_inp_dis[13] O
*I *874:gpio_inp_dis[13] O *D counter_gpio_config_example
*CAP
1 gpio_inp_dis[13] 0.00197153
2 *874:gpio_inp_dis[13] 0.00215262
3 *533:25 0.0999389
4 *533:23 0.0979673
5 *533:21 0.132494
6 *533:19 0.132702
7 *533:13 0.0244891
8 *533:11 0.0264341
9 *533:11 *771:19 0.00321051
10 *533:13 *716:23 0.000312195
11 *533:21 *544:13 0.0102404
12 *533:21 *716:23 0
13 gpio_analog_pol[13] gpio_inp_dis[13] 0.000242342
14 gpio_analog_pol[13] *533:25 0.0139744
15 *109:13 *533:13 0
16 *109:13 *533:21 0.000464238
17 *156:13 *533:13 0.00110285
18 *225:13 *533:25 0.22843
19 *246:23 *533:13 0.000916673
20 *246:35 *533:13 0
21 *313:9 *533:19 0
22 *326:21 *533:21 0.0633938
23 *370:11 *533:11 6.75967e-05
24 *400:11 *533:11 0.000440564
25 *415:13 *533:13 0.00104321
26 *446:11 *533:21 0
27 *479:11 *533:13 0.00292544
28 *481:11 *533:21 0
*RES
1 *874:gpio_inp_dis[13] *533:11 15.588 
2 *533:11 *533:13 69.6155 
3 *533:13 *533:19 16.6141 
4 *533:19 *533:21 3116.61 
5 *533:21 *533:23 8 
6 *533:23 *533:25 430.248 
7 *533:25 gpio_inp_dis[13] 24.5324 
*END

*D_NET *534 0.870034
*CONN
*P gpio_inp_dis[14] O
*I *874:gpio_inp_dis[14] O *D counter_gpio_config_example
*CAP
1 gpio_inp_dis[14] 0.00153576
2 *874:gpio_inp_dis[14] 0.00342157
3 *534:34 0.18218
4 *534:32 0.180644
5 *534:30 0.191803
6 *534:28 0.196412
7 *534:14 0.0179936
8 *534:12 0.0168066
9 *534:12 *558:16 0.00266475
10 *534:14 *571:14 0.00718133
11 *534:14 *662:27 0
12 *534:28 *571:14 2.15996e-05
13 *534:28 *571:20 0.00560164
14 *534:28 *571:22 2.46216e-05
15 *534:28 *662:27 0
16 *534:30 *571:22 0.0470647
17 *534:30 *662:27 0
18 *534:34 *806:17 0
19 gpio_analog_pol[14] gpio_inp_dis[14] 0.00192338
20 gpio_analog_pol[14] *534:34 0.0143266
21 gpio_dm0[14] *534:34 0
22 *122:77 *534:28 0.000287558
23 *226:19 *534:34 0
24 *433:10 *534:12 0
25 *532:17 *534:12 0.000139852
*RES
1 *874:gpio_inp_dis[14] *534:12 11.4794 
2 *534:12 *534:14 50.5493 
3 *534:14 *534:28 19.4544 
4 *534:28 *534:30 659.62 
5 *534:30 *534:32 8 
6 *534:32 *534:34 542.433 
7 *534:34 gpio_inp_dis[14] 21.8273 
*END

*D_NET *535 0.785924
*CONN
*P gpio_inp_dis[15] O
*I *874:gpio_inp_dis[15] O *D counter_gpio_config_example
*CAP
1 gpio_inp_dis[15] 9.04367e-05
2 *874:gpio_inp_dis[15] 0.00148974
3 *535:17 0.151708
4 *535:15 0.151617
5 *535:13 0.180633
6 *535:11 0.180633
7 *535:9 0.0100968
8 *535:7 0.0115865
9 *535:7 *559:9 0.000170036
10 *535:9 *666:17 0
11 *535:13 gpio_out[34] 0.00149494
12 *535:13 *763:11 0
13 *535:13 *788:9 0
14 *535:13 *803:9 0
15 *535:13 *814:19 0
16 gpio_analog_pol[15] gpio_inp_dis[15] 0
17 gpio_analog_pol[15] *535:17 0
18 *139:17 *535:17 0
19 *154:7 *535:7 0.000170036
20 *317:9 *535:9 0.0440873
21 *323:9 *535:9 0.0415003
22 *324:9 *535:9 0.00178109
23 *350:15 *535:9 0.00751681
24 *352:9 *535:9 0.000312195
25 *352:17 *535:9 0
26 *359:9 *535:9 0.00103641
27 *380:17 *535:13 0
*RES
1 *874:gpio_inp_dis[15] *535:7 11.3339 
2 *535:7 *535:9 642.454 
3 *535:9 *535:11 8 
4 *535:11 *535:13 518.605 
5 *535:13 *535:15 8 
6 *535:15 *535:17 3524.39 
7 *535:17 gpio_inp_dis[15] 1.86429 
*END

*D_NET *536 0.767451
*CONN
*P gpio_inp_dis[16] O
*I *874:gpio_inp_dis[16] O *D counter_gpio_config_example
*CAP
1 gpio_inp_dis[16] 0.152561
2 *874:gpio_inp_dis[16] 0.00215848
3 *536:15 0.152561
4 *536:13 0.142622
5 *536:11 0.142622
6 *536:9 0.0129291
7 *536:7 0.0150876
8 *536:9 *537:9 0.0575968
9 *536:9 *569:21 0
10 *536:13 *685:11 0
11 *536:13 *688:25 0
12 *536:13 *721:9 0.0215046
13 *536:13 *816:11 0.00940172
14 gpio_analog_pol[16] gpio_inp_dis[16] 0
15 *93:17 *536:9 0
16 *95:7 *536:7 0.000263807
17 *178:9 *536:7 0
18 *359:13 *536:13 0
19 *407:9 *536:9 0.0581414
20 *466:17 *536:13 0
*RES
1 *874:gpio_inp_dis[16] *536:7 12.7936 
2 *536:7 *536:9 786.832 
3 *536:9 *536:11 8 
4 *536:11 *536:13 425.01 
5 *536:13 *536:15 8 
6 *536:15 gpio_inp_dis[16] 3546.86 
*END

*D_NET *537 0.686454
*CONN
*P gpio_inp_dis[17] O
*I *874:gpio_inp_dis[17] O *D counter_gpio_config_example
*CAP
1 gpio_inp_dis[17] 0.154517
2 *874:gpio_inp_dis[17] 0.00210969
3 *537:15 0.154517
4 *537:13 0.13186
5 *537:11 0.13186
6 *537:9 0.0227504
7 *537:7 0.0248601
8 *537:13 *687:11 0
9 *537:13 *770:11 0
10 *537:13 *772:11 0.00487386
11 gpio_analog_pol[17] gpio_inp_dis[17] 0
12 *93:17 *537:9 0
13 *141:13 *537:13 0
14 *229:7 *537:7 0.000150448
15 *249:7 *537:7 0.000272316
16 *324:15 *537:13 0.000155767
17 *374:7 *537:7 0
18 *406:13 *537:13 0
19 *407:9 *537:9 0.000932027
20 *407:13 *537:13 0
21 *431:9 *537:9 0
22 *536:9 *537:9 0.0575968
*RES
1 *874:gpio_inp_dis[17] *537:7 12.8795 
2 *537:7 *537:9 768.521 
3 *537:9 *537:11 8 
4 *537:11 *537:13 377.097 
5 *537:13 *537:15 8 
6 *537:15 gpio_inp_dis[17] 3589.82 
*END

*D_NET *538 0.650662
*CONN
*P gpio_inp_dis[18] O
*I *874:gpio_inp_dis[18] O *D counter_gpio_config_example
*CAP
1 gpio_inp_dis[18] 0.00177377
2 *874:gpio_inp_dis[18] 0.00967119
3 *538:13 0.101239
4 *538:11 0.0994647
5 *538:9 0.184483
6 *538:7 0.194154
7 *538:13 *676:9 0
8 *538:13 *720:9 0.0320202
9 gpio_analog_pol[18] gpio_inp_dis[18] 0
10 *122:15 *538:7 0
11 *179:9 *538:7 0
12 *198:9 *538:9 0.022057
13 *323:7 *538:7 0.000179001
14 *324:7 *538:7 0.000175509
15 *327:9 *538:9 0.00544561
16 *363:19 *538:13 0
17 *414:9 *538:9 0
18 *455:9 *538:13 0
19 *459:11 *538:9 0
*RES
1 *874:gpio_inp_dis[18] *538:7 31.4267 
2 *538:7 *538:9 4281.5 
3 *538:9 *538:11 8 
4 *538:11 *538:13 312.611 
5 *538:13 gpio_inp_dis[18] 46.1039 
*END

*D_NET *539 0.384486
*CONN
*P gpio_inp_dis[19] O
*I *874:gpio_inp_dis[19] O *D counter_gpio_config_example
*CAP
1 gpio_inp_dis[19] 0.161986
2 *874:gpio_inp_dis[19] 0.00023958
3 *539:11 0.161986
4 *539:9 0.0258639
5 *539:7 0.0261035
6 gpio_analog_pol[19] gpio_inp_dis[19] 0
7 *261:7 *539:7 3.6737e-05
8 *261:9 *539:7 3.1594e-06
9 *261:9 *539:9 0.00696218
10 *308:9 *539:9 0
11 *388:11 *539:7 2.82839e-05
12 *388:11 *539:9 0.00127703
*RES
1 *874:gpio_inp_dis[19] *539:7 0.662667 
2 *539:7 *539:9 82.0157 
3 *539:9 *539:11 8 
4 *539:11 gpio_inp_dis[19] 3756.03 
*END

*D_NET *540 0.383889
*CONN
*P gpio_inp_dis[1] O
*I *874:gpio_inp_dis[1] O *D counter_gpio_config_example
*CAP
1 gpio_inp_dis[1] 0.000241921
2 *874:gpio_inp_dis[1] 0.0109889
3 *540:17 0.141175
4 *540:15 0.140933
5 *540:13 0.0309924
6 *540:11 0.0419813
7 *540:11 *738:25 0.00276389
8 gpio_analog_pol[1] *540:17 0
9 *131:9 *540:17 0
10 *187:11 *540:11 0
11 *239:19 *540:11 4.93993e-05
12 *243:11 *540:11 0.000566385
13 *253:11 *540:11 0
14 *253:13 *540:13 0.0106614
15 *292:11 *540:11 0.000163756
16 *298:16 *540:17 0.00337073
17 *375:17 *540:13 0
18 *436:13 *540:13 0
*RES
1 *874:gpio_inp_dis[1] *540:11 39.9741 
2 *540:11 *540:13 87.0053 
3 *540:13 *540:15 8 
4 *540:15 *540:17 410.211 
5 *540:17 gpio_inp_dis[1] 0.951067 
*END

*D_NET *541 0.425526
*CONN
*P gpio_inp_dis[20] O
*I *874:gpio_inp_dis[20] O *D counter_gpio_config_example
*CAP
1 gpio_inp_dis[20] 0.0021138
2 *874:gpio_inp_dis[20] 0.0105086
3 *541:13 0.113787
4 *541:11 0.122182
5 *541:13 *567:27 0.0129484
6 *541:13 *717:13 0.154429
7 gpio_analog_pol[20] gpio_inp_dis[20] 0
8 *257:7 *541:11 3.11601e-05
9 *257:9 *541:11 0.00189541
10 *356:7 *541:11 2.79086e-05
11 *356:9 *541:11 0.00189866
12 *361:13 gpio_inp_dis[20] 0.00198172
13 *436:13 *541:13 0.00372091
*RES
1 *874:gpio_inp_dis[20] *541:11 38.7291 
2 *541:11 *541:13 3805.4 
3 *541:13 gpio_inp_dis[20] 45.0848 
*END

*D_NET *542 0.528352
*CONN
*P gpio_inp_dis[21] O
*I *874:gpio_inp_dis[21] O *D counter_gpio_config_example
*CAP
1 gpio_inp_dis[21] 9.62404e-05
2 *874:gpio_inp_dis[21] 0.00153056
3 *542:25 0.157143
4 *542:23 0.157047
5 *542:21 0.00645401
6 *542:19 0.00666312
7 *542:13 0.00653754
8 *542:9 0.0240794
9 *542:7 0.0192815
10 *542:7 *558:16 0.000101554
11 *542:9 *666:17 0
12 *542:13 *783:11 1.74643e-05
13 *542:13 *783:13 0.00138262
14 *542:19 *747:5 0.000389659
15 *542:19 *769:5 0
16 *542:21 *743:17 0.00142464
17 gpio_analog_pol[21] gpio_inp_dis[21] 0
18 *103:27 *542:21 0.000171985
19 *104:27 *542:13 0.00140726
20 *146:29 *542:25 0
21 *190:21 *542:13 0.0198568
22 *190:29 *542:21 0.0220113
23 *206:7 *542:7 0.000224517
24 *215:31 *542:13 0.000166499
25 *233:13 *542:13 0.0194247
26 *233:21 *542:21 0.030856
27 *247:7 *542:7 0.000224517
28 *322:9 *542:9 0.0453727
29 *323:13 *542:21 0.000306356
30 *381:17 *542:13 0.0003309
31 *465:19 *542:25 0.00585108
*RES
1 *874:gpio_inp_dis[21] *542:7 11.5915 
2 *542:7 *542:9 586.111 
3 *542:9 *542:13 48.9285 
4 *542:13 *542:19 28.2511 
5 *542:19 *542:21 336.98 
6 *542:21 *542:23 15 
7 *542:23 *542:25 3635.49 
8 *542:25 gpio_inp_dis[21] 1.86429 
*END

*D_NET *543 0.485636
*CONN
*P gpio_inp_dis[22] O
*I *874:gpio_inp_dis[22] O *D counter_gpio_config_example
*CAP
1 gpio_inp_dis[22] 0.161545
2 *874:gpio_inp_dis[22] 0.000253949
3 *543:19 0.161545
4 *543:17 0.0168529
5 *543:15 0.0168529
6 *543:13 0.0101969
7 *543:11 0.0104509
8 gpio_inp_dis[22] *688:5 0
9 gpio_inp_dis[22] *811:5 0
10 gpio_inp_dis[22] *812:5 0.00242232
11 *543:13 *546:13 0
12 *543:13 *815:17 0.00349828
13 *543:17 *750:9 0.000754804
14 gpio_analog_pol[22] gpio_inp_dis[22] 0
15 *92:7 *543:11 3.57358e-05
16 *92:9 *543:11 1.99504e-05
17 *158:11 *543:13 0.0008027
18 *200:13 *543:13 0.00156098
19 *209:7 *543:11 5.80806e-05
20 *209:9 *543:11 1.39936e-05
21 *234:13 *543:13 0.0420737
22 *235:13 *543:13 0.000455121
23 *290:17 *543:17 0.00428744
24 *322:13 *543:17 0.0231591
25 *360:13 *543:17 0
26 *425:13 *543:13 0.0287969
*RES
1 *874:gpio_inp_dis[22] *543:11 8.93333 
2 *543:11 *543:13 564.982 
3 *543:13 *543:15 8 
4 *543:15 *543:17 62.3952 
5 *543:17 *543:19 8 
6 *543:19 gpio_inp_dis[22] 3624.33 
*END

*D_NET *544 0.514678
*CONN
*P gpio_inp_dis[23] O
*I *874:gpio_inp_dis[23] O *D counter_gpio_config_example
*CAP
1 gpio_inp_dis[23] 0.00230567
2 *874:gpio_inp_dis[23] 0.00301554
3 *544:21 0.15723
4 *544:19 0.154924
5 *544:17 0.0191828
6 *544:15 0.0191828
7 *544:13 0.00841227
8 *544:11 0.0114278
9 *544:13 *716:23 0
10 *544:17 *743:17 0.000524764
11 *544:17 *781:17 0.0442241
12 *544:17 *783:11 0.000260071
13 *544:17 *783:13 3.40858e-05
14 gpio_analog_pol[23] gpio_inp_dis[23] 0
15 *104:27 *544:17 0.00525628
16 *109:13 *544:13 0.000926942
17 *117:11 *544:11 0.00025552
18 *128:15 *544:11 0.00098475
19 *147:21 *544:17 0.00351997
20 *148:21 *544:21 0
21 *227:9 *544:11 0
22 *233:13 *544:17 0.0088615
23 *271:13 *544:17 0.016563
24 *326:13 *544:13 0.0107137
25 *326:21 *544:13 0.000185018
26 *367:25 *544:17 0.0364469
27 *446:11 *544:13 0
28 *533:21 *544:13 0.0102404
*RES
1 *874:gpio_inp_dis[23] *544:11 16.1623 
2 *544:11 *544:13 278.338 
3 *544:13 *544:15 8 
4 *544:15 *544:17 117.693 
5 *544:17 *544:19 8 
6 *544:19 *544:21 3591.36 
7 *544:21 gpio_inp_dis[23] 49.8489 
*END

*D_NET *545 0.60776
*CONN
*P gpio_inp_dis[24] O
*I *874:gpio_inp_dis[24] O *D counter_gpio_config_example
*CAP
1 gpio_inp_dis[24] 0.000274578
2 *874:gpio_inp_dis[24] 0.00134422
3 *545:30 0.0181619
4 *545:28 0.0178873
5 *545:26 0.176274
6 *545:24 0.176274
7 *545:22 0.032127
8 *545:20 0.032127
9 *545:18 0.0229504
10 *545:16 0.0234481
11 *545:10 0.0164135
12 *545:8 0.0172601
13 *545:16 *553:12 5.64456e-06
14 *545:18 *553:12 0.000660485
15 *545:18 *705:29 2.83764e-05
16 *545:22 *570:10 0
17 *545:22 *668:9 0
18 *545:22 *818:9 0
19 *545:26 *770:13 0.0412845
20 *149:25 *545:30 0
21 *237:9 *545:8 0
22 *237:9 *545:10 0
23 *237:9 *545:16 0
24 *250:26 *545:10 0.000514606
25 *314:13 *545:30 0.0190797
26 *372:23 *545:18 2.67561e-05
27 *372:25 *545:18 0.0106987
28 *420:12 *545:10 0.000919796
*RES
1 *874:gpio_inp_dis[24] *545:8 12.4539 
2 *545:8 *545:10 50.1947 
3 *545:10 *545:16 2.19147 
4 *545:16 *545:18 81.7712 
5 *545:18 *545:20 8 
6 *545:20 *545:22 88.4987 
7 *545:22 *545:24 8 
8 *545:24 *545:26 550.947 
9 *545:26 *545:28 8 
10 *545:28 *545:30 59.8771 
11 *545:30 gpio_inp_dis[24] 1.05373 
*END

*D_NET *546 0.587457
*CONN
*P gpio_inp_dis[25] O
*I *874:gpio_inp_dis[25] O *D counter_gpio_config_example
*CAP
1 gpio_inp_dis[25] 0.00073347
2 *874:gpio_inp_dis[25] 0.0005692
3 *546:21 0.00526426
4 *546:19 0.00453079
5 *546:17 0.0533253
6 *546:15 0.0533253
7 *546:13 0.0874503
8 *546:11 0.0880195
9 *546:13 *549:13 0.00386531
10 *546:13 *727:25 0
11 *546:13 *771:13 0
12 *546:13 *815:17 0
13 gpio_analog_pol[25] gpio_inp_dis[25] 0
14 gpio_holdover[25] *546:21 0
15 gpio_ib_mode_sel[25] *546:21 0
16 *176:11 *546:13 0.000150895
17 *234:7 *546:11 3.41542e-05
18 *235:13 *546:13 0
19 *338:13 *546:13 0
20 *358:9 *546:11 0
21 *368:33 *546:13 0.000104065
22 *368:55 *546:13 0.00020813
23 *368:57 *546:13 0.0435783
24 *370:13 *546:13 0.235047
25 *378:19 *546:13 0.000104065
26 *378:21 *546:13 0.0110116
27 *385:7 *546:11 4.1504e-05
28 *385:9 *546:11 9.33066e-05
29 *425:13 *546:13 0
30 *427:13 *546:13 0
31 *543:13 *546:13 0
*RES
1 *874:gpio_inp_dis[25] *546:11 9.792 
2 *546:11 *546:13 3099.71 
3 *546:13 *546:15 8 
4 *546:15 *546:17 149.55 
5 *546:17 *546:19 8 
6 *546:19 *546:21 100.154 
7 *546:21 gpio_inp_dis[25] 9.8788 
*END

*D_NET *547 0.641893
*CONN
*P gpio_inp_dis[26] O
*I *874:gpio_inp_dis[26] O *D counter_gpio_config_example
*CAP
1 gpio_inp_dis[26] 0.00455067
2 *874:gpio_inp_dis[26] 0.0100807
3 *547:9 0.0449265
4 *547:7 0.0504565
5 *547:9 *548:9 0.220025
6 *547:9 *550:9 0.023918
7 *547:9 *731:21 0.0119234
8 *547:9 *765:21 0.0134579
9 *547:9 *768:13 0.0011629
10 gpio_analog_pol[26] gpio_inp_dis[26] 0.000385594
11 *101:7 *547:7 0
12 *150:7 *547:7 0
13 *151:15 gpio_inp_dis[26] 0
14 *274:7 *547:7 0.000620902
15 *457:11 *547:9 0.260385
*RES
1 *874:gpio_inp_dis[26] *547:7 35.8059 
2 *547:7 *547:9 3315.92 
3 *547:9 gpio_inp_dis[26] 42.331 
*END

*D_NET *548 0.475592
*CONN
*P gpio_inp_dis[27] O
*I *874:gpio_inp_dis[27] O *D counter_gpio_config_example
*CAP
1 gpio_inp_dis[27] 0.00455633
2 *874:gpio_inp_dis[27] 0.0116399
3 *548:9 0.0624176
4 *548:7 0.0695011
5 *548:9 *550:9 0.0104155
6 *548:9 *731:21 0.0789768
7 *548:9 *768:13 0.0056367
8 *548:9 *818:13 0.0120884
9 gpio_analog_pol[27] gpio_inp_dis[27] 8.43939e-05
10 *143:7 *548:7 4.94317e-05
11 *179:9 *548:7 0
12 *300:7 *548:7 0.000200521
13 *467:13 *548:9 0
14 *547:9 *548:9 0.220025
*RES
1 *874:gpio_inp_dis[27] *548:7 35.72 
2 *548:7 *548:9 2802.5 
3 *548:9 gpio_inp_dis[27] 38.0236 
*END

*D_NET *549 0.532113
*CONN
*P gpio_inp_dis[28] O
*I *874:gpio_inp_dis[28] O *D counter_gpio_config_example
*CAP
1 gpio_inp_dis[28] 0.000735415
2 *874:gpio_inp_dis[28] 0.000471485
3 *549:21 0.00276459
4 *549:19 0.00202918
5 *549:17 0.054606
6 *549:15 0.054606
7 *549:13 0.0551678
8 *549:11 0.0556393
9 *549:13 *771:13 0
10 *549:17 gpio_oeb[28] 0
11 *549:17 *681:21 0
12 gpio_analog_pol[28] gpio_inp_dis[28] 0
13 *130:11 *549:11 0.000117363
14 *222:7 *549:11 4.4107e-05
15 *222:9 *549:11 0.000128857
16 *343:13 *549:13 0
17 *368:57 *549:13 0.0105136
18 *370:13 *549:13 0.186751
19 *378:13 *549:13 0.00135285
20 *378:21 *549:13 0.00836054
21 *422:13 *549:13 0.0949592
22 *463:11 *549:13 0
23 *546:13 *549:13 0.00386531
*RES
1 *874:gpio_inp_dis[28] *549:11 9.96373 
2 *549:11 *549:13 2569.38 
3 *549:13 *549:15 8 
4 *549:15 *549:17 149.722 
5 *549:17 *549:19 8 
6 *549:19 *549:21 43.8107 
7 *549:21 gpio_inp_dis[28] 9.88627 
*END

*D_NET *550 0.39593
*CONN
*P gpio_inp_dis[29] O
*I *874:gpio_inp_dis[29] O *D counter_gpio_config_example
*CAP
1 gpio_inp_dis[29] 0.00457598
2 *874:gpio_inp_dis[29] 0.0112727
3 *550:9 0.142054
4 *550:7 0.148751
5 *116:7 *550:7 0
6 *122:15 *550:7 0
7 *198:7 *550:7 0.00172059
8 *259:15 *550:7 2.047e-05
9 *294:31 *550:9 0.000145691
10 *295:20 *550:7 0.000203107
11 *416:25 *550:9 0
12 *417:17 *550:9 0
13 *424:9 *550:9 0.00173742
14 *424:33 *550:9 0.000382553
15 *424:37 *550:9 0.00303064
16 *457:11 *550:9 0.0477033
17 *547:9 *550:9 0.023918
18 *548:9 *550:9 0.0104155
*RES
1 *874:gpio_inp_dis[29] *550:7 36.0205 
2 *550:7 *550:9 417.032 
3 *550:9 gpio_inp_dis[29] 18.4711 
*END

*D_NET *551 0.337453
*CONN
*P gpio_inp_dis[2] O
*I *874:gpio_inp_dis[2] O *D counter_gpio_config_example
*CAP
1 gpio_inp_dis[2] 0.0118031
2 *874:gpio_inp_dis[2] 0.000200931
3 *551:9 0.140762
4 *551:7 0.12916
5 gpio_analog_en[2] gpio_inp_dis[2] 0
6 gpio_analog_pol[1] gpio_inp_dis[2] 0.00138863
7 gpio_analog_pol[2] gpio_inp_dis[2] 0.00106052
8 *165:9 *551:9 0
9 *170:17 *551:9 0
10 *188:13 gpio_inp_dis[2] 0
11 *214:17 *551:9 0.0525681
12 *221:11 *551:7 0
13 *221:11 *551:9 0
14 *243:17 gpio_inp_dis[2] 0.000389304
15 *368:11 *551:7 5.15215e-05
16 *368:11 *551:9 6.83647e-05
*RES
1 *874:gpio_inp_dis[2] *551:7 0.449004 
2 *551:7 *551:9 432.996 
3 *551:9 gpio_inp_dis[2] 49.2985 
*END

*D_NET *552 0.252977
*CONN
*P gpio_inp_dis[30] O
*I *874:gpio_inp_dis[30] O *D counter_gpio_config_example
*CAP
1 gpio_inp_dis[30] 0.0032561
2 *874:gpio_inp_dis[30] 0.0134521
3 *552:9 0.0736561
4 *552:7 0.0838522
5 *552:9 *730:21 0.0780145
6 gpio_analog_pol[30] gpio_inp_dis[30] 0.000437748
7 *127:7 *552:7 0.000283632
8 *301:7 *552:7 2.42612e-05
9 *416:7 *552:7 0
*RES
1 *874:gpio_inp_dis[30] *552:7 38.4677 
2 *552:7 *552:9 1912.98 
3 *552:9 gpio_inp_dis[30] 15.5609 
*END

*D_NET *553 0.309761
*CONN
*P gpio_inp_dis[31] O
*I *874:gpio_inp_dis[31] O *D counter_gpio_config_example
*CAP
1 gpio_inp_dis[31] 0.000432532
2 *874:gpio_inp_dis[31] 0.00156716
3 *553:22 0.0469339
4 *553:20 0.0465013
5 *553:18 0.0382993
6 *553:16 0.0399229
7 *553:12 0.0031908
8 *553:18 *699:9 0.00295024
9 *553:18 *751:11 0.00031633
10 *553:22 *726:21 0
11 gpio_analog_pol[31] gpio_inp_dis[31] 0.000243009
12 *110:6 *553:12 0.000315006
13 *142:13 *553:18 0.0566687
14 *205:17 *553:12 0.000300404
15 *237:9 *553:12 0.00014194
16 *290:17 *553:18 0
17 *290:21 *553:22 0.0455332
18 *323:13 *553:18 0
19 *410:19 *553:12 0.00104625
20 *411:13 *553:18 0.0247319
21 *545:16 *553:12 5.64456e-06
22 *545:18 *553:12 0.000660485
*RES
1 *874:gpio_inp_dis[31] *553:12 30.9309 
2 *553:12 *553:16 34.9079 
3 *553:16 *553:18 145.943 
4 *553:18 *553:20 8 
5 *553:20 *553:22 1239.69 
6 *553:22 gpio_inp_dis[31] 9.1284 
*END

*D_NET *554 0.213883
*CONN
*P gpio_inp_dis[32] O
*I *874:gpio_inp_dis[32] O *D counter_gpio_config_example
*CAP
1 gpio_inp_dis[32] 0.00809447
2 *874:gpio_inp_dis[32] 0.0101891
3 *554:9 0.0929496
4 *554:7 0.0950442
5 gpio_analog_pol[32] gpio_inp_dis[32] 0
6 gpio_dm0[32] gpio_inp_dis[32] 0
7 *158:15 gpio_inp_dis[32] 0.00433184
8 *198:7 *554:7 0
9 *246:53 gpio_inp_dis[32] 0
10 *264:7 *554:7 9.34102e-05
11 *285:7 *554:7 0.00165105
12 *332:15 gpio_inp_dis[32] 0.000113665
13 *332:17 gpio_inp_dis[32] 6.99019e-05
14 *339:29 *554:7 0.00134565
*RES
1 *874:gpio_inp_dis[32] *554:7 33.788 
2 *554:7 *554:9 211.564 
3 *554:9 gpio_inp_dis[32] 29.1633 
*END

*D_NET *555 0.274409
*CONN
*P gpio_inp_dis[33] O
*I *874:gpio_inp_dis[33] O *D counter_gpio_config_example
*CAP
1 gpio_inp_dis[33] 9.94708e-05
2 *874:gpio_inp_dis[33] 0.00414768
3 *555:17 0.0578736
4 *555:15 0.0577741
5 *555:13 0.0698925
6 *555:11 0.0740402
7 *555:17 *752:9 0.00760576
8 gpio_analog_pol[33] *555:17 0.00161439
9 *115:17 *555:17 0
10 *144:10 *555:11 0.000249755
11 *186:9 *555:11 0.000974085
12 *275:9 *555:11 0
13 *378:11 *555:11 0.000137486
*RES
1 *874:gpio_inp_dis[33] *555:11 20.2248 
2 *555:11 *555:13 169.893 
3 *555:13 *555:15 8 
4 *555:15 *555:17 161.2 
5 *555:17 gpio_inp_dis[33] 0.381733 
*END

*D_NET *556 0.213704
*CONN
*P gpio_inp_dis[34] O
*I *874:gpio_inp_dis[34] O *D counter_gpio_config_example
*CAP
1 gpio_inp_dis[34] 0.000349811
2 *874:gpio_inp_dis[34] 0.000795054
3 *556:22 2.51378e-06
4 *556:17 0.0574519
5 *556:15 0.0571046
6 *556:13 0.0309113
7 *556:11 0.0317063
8 *556:17 *811:11 0.0021534
9 gpio_analog_pol[34] *556:22 1.64559e-05
10 gpio_analog_sel[34] *556:17 0
11 *139:13 *556:17 0
12 *283:15 *556:17 0
13 *290:13 *556:13 0.000151253
14 *293:13 *556:13 0.000118027
15 *318:7 *556:11 4.58975e-05
16 *318:9 *556:11 0.000107162
17 *334:13 *556:13 0.0211544
18 *337:13 *556:13 0.000312195
19 *368:33 *556:13 0.00650071
20 *372:11 *556:11 0.00015709
21 *378:13 *556:13 0.00417042
22 *378:19 *556:13 0.000365242
23 *381:13 *556:13 0.000129945
*RES
1 *874:gpio_inp_dis[34] *556:11 10.2643 
2 *556:11 *556:13 91.1941 
3 *556:13 *556:15 8 
4 *556:15 *556:17 151.239 
5 *556:17 gpio_inp_dis[34] 1.3328 
6 gpio_inp_dis[34] *556:22 0.0819512 
*END

*D_NET *557 0.259343
*CONN
*P gpio_inp_dis[35] O
*I *874:gpio_inp_dis[35] O *D counter_gpio_config_example
*CAP
1 gpio_inp_dis[35] 0.000376399
2 *874:gpio_inp_dis[35] 0.000849019
3 *557:21 0.00169304
4 *557:19 0.00131664
5 *557:17 0.0336335
6 *557:15 0.0336335
7 *557:13 0.0187938
8 *557:11 0.0196429
9 *557:17 *829:16 0.0019044
10 *557:21 *726:21 0.0027759
11 gpio_analog_pol[35] gpio_inp_dis[35] 0.000185109
12 *874:gpio_in[0] *557:11 0.000199399
13 *113:13 *557:13 0
14 *117:17 *557:17 6.25481e-06
15 *127:19 *557:17 9.11163e-05
16 *127:21 *557:17 0.0102572
17 *146:13 *557:13 0
18 *215:31 *557:17 0.00156623
19 *240:19 *557:17 0.000107501
20 *290:13 *557:13 0.00107204
21 *292:13 *557:13 0
22 *293:13 *557:13 0.019414
23 *293:17 *557:17 8.49974e-05
24 *294:13 *557:13 0
25 *337:13 *557:13 0
26 *337:17 *557:17 0.0780793
27 *337:21 *557:21 0.00563174
28 *347:19 *557:17 4.81059e-05
29 *347:21 *557:17 0.000111283
30 *381:13 *557:13 0.00246321
31 *394:7 *557:11 3.9421e-05
32 *394:9 *557:11 8.25554e-05
33 *425:17 *557:17 0.0251082
34 *463:7 *557:11 0.000160225
35 *463:11 *557:13 1.61501e-05
*RES
1 *874:gpio_inp_dis[35] *557:11 10.6507 
2 *557:11 *557:13 522.021 
3 *557:13 *557:15 8 
4 *557:15 *557:17 150.924 
5 *557:17 *557:19 8 
6 *557:19 *557:21 72.6864 
7 *557:21 gpio_inp_dis[35] 9.10413 
*END

*D_NET *558 0.183646
*CONN
*P gpio_inp_dis[36] O
*I *874:gpio_inp_dis[36] O *D counter_gpio_config_example
*CAP
1 gpio_inp_dis[36] 0.0012656
2 *874:gpio_inp_dis[36] 0.0716335
3 *558:20 0.0137885
4 *558:18 0.0125229
5 *558:16 0.0716335
6 gpio_analog_pol[36] gpio_inp_dis[36] 0.000258573
7 *120:10 *558:16 0.000399045
8 *144:10 *558:16 0.00897911
9 *207:9 *558:20 0
10 *252:40 *558:16 0.000399045
11 *462:15 *558:20 0
12 *534:12 *558:16 0.00266475
13 *542:7 *558:16 0.000101554
*RES
1 *874:gpio_inp_dis[36] *558:16 43.3587 
2 *558:16 *558:18 8 
3 *558:18 *558:20 277.634 
4 *558:20 gpio_inp_dis[36] 11.0361 
*END

*D_NET *559 0.0386629
*CONN
*P gpio_inp_dis[37] O
*I *874:gpio_inp_dis[37] O *D counter_gpio_config_example
*CAP
1 gpio_inp_dis[37] 0.00125757
2 *874:gpio_inp_dis[37] 0.0134826
3 *559:9 0.0147401
4 gpio_analog_en[37] *559:9 0.00598541
5 gpio_analog_pol[37] gpio_inp_dis[37] 0.00164725
6 gpio_analog_pol[37] *559:9 0
7 *154:7 *559:9 0
8 *396:15 *559:9 0.000881003
9 *462:15 *559:9 0.000498887
10 *535:7 *559:9 0.000170036
*RES
1 *874:gpio_inp_dis[37] *559:9 48.7294 
2 *559:9 gpio_inp_dis[37] 11.4636 
*END

*D_NET *560 0.119371
*CONN
*P gpio_inp_dis[38] O
*I *874:gpio_inp_dis[38] O *D counter_gpio_config_example
*CAP
1 gpio_inp_dis[38] 2.18522e-05
2 *874:gpio_inp_dis[38] 0.000218321
3 *560:19 0.00443235
4 *560:17 0.0044105
5 *560:15 0.0357063
6 *560:13 0.0357063
7 *560:11 0.00508873
8 *560:9 0.00530705
9 *560:11 *563:11 0.00914608
10 *560:11 *564:8 0.000232637
11 *560:11 *566:6 0.000857682
12 gpio_analog_pol[38] *560:19 0
13 gpio_dm0[38] *560:19 0
14 *252:50 *560:19 0.00753674
15 *301:9 *560:11 0
16 *340:9 *560:11 0
17 *342:13 *560:11 0.000646809
18 *384:13 *560:15 0
19 *428:11 *560:11 0.00997417
20 *432:13 *560:11 8.60312e-05
21 *475:11 *560:15 0
*RES
1 *874:gpio_inp_dis[38] *560:9 8.63467 
2 *560:9 *560:11 200.866 
3 *560:11 *560:13 8 
4 *560:13 *560:15 104.126 
5 *560:15 *560:17 8 
6 *560:17 *560:19 132.054 
7 *560:19 gpio_inp_dis[38] 0.528214 
*END

*D_NET *561 0.150877
*CONN
*P gpio_inp_dis[39] O
*I *874:gpio_inp_dis[39] O *D counter_gpio_config_example
*CAP
1 gpio_inp_dis[39] 8.95511e-05
2 *874:gpio_inp_dis[39] 0.00296733
3 *561:25 0.00410855
4 *561:23 0.00417299
5 *561:21 0.0161077
6 *561:19 0.0159538
7 *561:17 0.0292087
8 *561:15 0.0292087
9 *561:13 0.0112019
10 *561:11 0.0141692
11 *561:13 *716:23 0.0164745
12 gpio_analog_pol[39] *561:25 0
13 *255:7 *561:11 3.81941e-05
14 *255:9 *561:11 0.000413383
15 *357:11 *561:11 0
16 *479:11 *561:13 0.00676221
*RES
1 *874:gpio_inp_dis[39] *561:11 15.7168 
2 *561:11 *561:13 379.051 
3 *561:13 *561:15 8 
4 *561:15 *561:17 85.5792 
5 *561:17 *561:19 8 
6 *561:19 *561:21 346.467 
7 *561:21 *561:23 3.48 
8 *561:23 *561:25 85.7571 
9 *561:25 gpio_inp_dis[39] 2.16464 
*END

*D_NET *562 0.532788
*CONN
*P gpio_inp_dis[3] O
*I *874:gpio_inp_dis[3] O *D counter_gpio_config_example
*CAP
1 gpio_inp_dis[3] 0.00010774
2 *874:gpio_inp_dis[3] 0.000288799
3 *562:17 0.109292
4 *562:15 0.109184
5 *562:13 0.00863725
6 *562:11 0.00863725
7 *562:9 0.0167162
8 *562:7 0.017005
9 *562:7 *732:5 0
10 *562:9 *661:13 0.000850079
11 *562:9 *735:9 0.00103078
12 *562:9 *749:13 0.00282647
13 *562:9 *804:9 0.0346864
14 *562:13 *672:13 0.00893468
15 *94:11 *562:17 0.00133063
16 *127:21 *562:9 0
17 *146:13 *562:13 0
18 *166:17 *562:17 0
19 *226:9 *562:17 0.209139
20 *259:29 *562:9 0.00412196
21 *380:13 *562:13 0
*RES
1 *874:gpio_inp_dis[3] *562:7 19.8264 
2 *562:7 *562:9 498.966 
3 *562:9 *562:11 15 
4 *562:11 *562:13 240.835 
5 *562:13 *562:15 8 
6 *562:15 *562:17 438.504 
7 *562:17 gpio_inp_dis[3] 0.413467 
*END

*D_NET *563 0.25218
*CONN
*P gpio_inp_dis[40] O
*I *874:gpio_inp_dis[40] O *D counter_gpio_config_example
*CAP
1 gpio_inp_dis[40] 0.000102405
2 *874:gpio_inp_dis[40] 0.000210805
3 *563:19 0.00377245
4 *563:17 0.00367005
5 *563:15 0.0718062
6 *563:13 0.0718062
7 *563:11 0.00351505
8 *563:9 0.00372585
9 *563:11 *564:8 0.000127194
10 *563:11 *566:6 0.00150862
11 gpio_analog_pol[40] *563:19 7.78255e-05
12 *126:17 *563:15 0.0757672
13 *167:13 *563:19 0
14 *340:9 *563:11 0
15 *340:13 *563:11 0
16 *432:13 *563:11 0.00105053
17 *432:15 *563:11 0.00589392
18 *432:19 *563:15 0
19 *560:11 *563:11 0.00914608
*RES
1 *874:gpio_inp_dis[40] *563:9 8.3808 
2 *563:9 *563:11 167.061 
3 *563:11 *563:13 8 
4 *563:13 *563:15 256.196 
5 *563:15 *563:17 8 
6 *563:17 *563:19 82.7536 
7 *563:19 gpio_inp_dis[40] 2.47536 
*END

*D_NET *564 0.340087
*CONN
*P gpio_inp_dis[41] O
*I *874:gpio_inp_dis[41] O *D counter_gpio_config_example
*CAP
1 gpio_inp_dis[41] 5.61301e-05
2 *874:gpio_inp_dis[41] 0.00186164
3 *564:14 0.00998461
4 *564:12 0.00992848
5 *564:10 0.0572416
6 *564:8 0.0591032
7 *564:8 *566:6 0.00233246
8 *564:10 *701:9 0.00103282
9 *564:10 *702:9 0.0509289
10 *564:10 *713:9 0.0344855
11 *564:10 *714:19 0.0161256
12 *564:10 *718:9 0.0368315
13 *564:10 *794:9 0.0012184
14 *564:10 *832:9 0.0577911
15 gpio_analog_pol[41] *564:14 0
16 *257:13 *564:14 0
17 *342:13 *564:8 0.000566054
18 *389:13 *564:10 0
19 *428:11 *564:8 0.000239211
20 *529:13 *564:10 0
21 *560:11 *564:8 0.000232637
22 *563:11 *564:8 0.000127194
*RES
1 *874:gpio_inp_dis[41] *564:8 22.0219 
2 *564:8 *564:10 307.587 
3 *564:10 *564:12 8 
4 *564:12 *564:14 225.019 
5 *564:14 gpio_inp_dis[41] 1.35679 
*END

*D_NET *565 0.453337
*CONN
*P gpio_inp_dis[42] O
*I *874:gpio_inp_dis[42] O *D counter_gpio_config_example
*CAP
1 gpio_inp_dis[42] 0.000827184
2 *874:gpio_inp_dis[42] 0.00479289
3 *565:13 0.0982875
4 *565:11 0.0974603
5 *565:9 0.0268237
6 *565:7 0.0316165
7 gpio_ib_mode_sel[39] *565:13 0.000342017
8 *101:9 *565:9 0.0443255
9 *169:25 gpio_inp_dis[42] 0
10 *197:7 *565:7 0.000447116
11 *259:17 *565:9 0.0090731
12 *412:7 *565:7 0.000222381
13 *431:13 *565:13 0.139119
14 *478:9 *565:13 0
*RES
1 *874:gpio_inp_dis[42] *565:7 18.6325 
2 *565:7 *565:9 881.911 
3 *565:9 *565:11 8 
4 *565:11 *565:13 369.454 
5 *565:13 gpio_inp_dis[42] 26.9225 
*END

*D_NET *566 0.37034
*CONN
*P gpio_inp_dis[43] O
*I *874:gpio_inp_dis[43] O *D counter_gpio_config_example
*CAP
1 gpio_inp_dis[43] 0.000101548
2 *874:gpio_inp_dis[43] 0.0120791
3 *566:14 0.00263935
4 *566:12 0.00253781
5 *566:10 0.120555
6 *566:8 0.120555
7 *566:6 0.0120791
8 *566:6 *567:13 0.000325813
9 *566:10 *785:9 0
10 *124:17 *566:10 0.0921195
11 *170:21 *566:14 0
12 *342:13 *566:6 3.43886e-05
13 *428:11 *566:6 0.000149504
14 *432:13 *566:6 0.000325813
15 *432:15 *566:6 0.00213933
16 *433:10 *566:6 0
17 *476:11 *566:10 0
18 *560:11 *566:6 0.000857682
19 *563:11 *566:6 0.00150862
20 *564:8 *566:6 0.00233246
*RES
1 *874:gpio_inp_dis[43] *566:6 44.3589 
2 *566:6 *566:8 8 
3 *566:8 *566:10 409.511 
4 *566:10 *566:12 8 
5 *566:12 *566:14 60.2164 
6 *566:14 gpio_inp_dis[43] 2.45464 
*END

*D_NET *567 0.512087
*CONN
*P gpio_inp_dis[4] O
*I *874:gpio_inp_dis[4] O *D counter_gpio_config_example
*CAP
1 gpio_inp_dis[4] 6.62264e-05
2 *874:gpio_inp_dis[4] 0.000472508
3 *567:31 0.140228
4 *567:29 0.140161
5 *567:27 0.0333808
6 *567:25 0.0333808
7 *567:23 0.00415016
8 *567:21 0.00482077
9 *567:15 0.0167292
10 *567:13 0.016531
11 *567:13 *662:13 0
12 *567:13 *690:13 4.02281e-06
13 *567:15 *662:15 0.000826465
14 *567:15 *662:25 0.000133475
15 *567:15 *670:9 0.00949445
16 *567:15 *683:9 0.00045828
17 *567:15 *690:11 0.00028371
18 *567:15 *690:13 0.00888058
19 *567:15 *727:21 0.000981478
20 *567:15 *730:9 0.0120176
21 *567:15 *782:17 0.0213228
22 *567:15 *815:15 0.00344839
23 *567:21 *727:21 0.00126035
24 *567:21 *815:15 0.000272176
25 *567:23 *683:9 0.000267417
26 *567:27 *717:13 0.02245
27 gpio_analog_pol[4] *567:31 0
28 *171:19 *567:31 0
29 *176:13 *567:31 0
30 *265:9 *567:31 0
31 *321:13 *567:27 0
32 *432:13 *567:13 0.00041266
33 *436:13 *567:27 0.00207917
34 *450:17 *567:15 0.0017039
35 *450:17 *567:21 0.00156204
36 *450:17 *567:23 0.0137229
37 *469:23 *567:15 0.00583517
38 *479:15 *567:21 0.000881029
39 *479:15 *567:23 0.000594578
40 *541:13 *567:27 0.0129484
41 *566:6 *567:13 0.000325813
*RES
1 *874:gpio_inp_dis[4] *567:13 27.8293 
2 *567:13 *567:15 609.497 
3 *567:15 *567:21 31.8689 
4 *567:21 *567:23 147.123 
5 *567:23 *567:25 15 
6 *567:25 *567:27 1031.75 
7 *567:27 *567:29 8 
8 *567:29 *567:31 411.37 
9 *567:31 gpio_inp_dis[4] 0.262267 
*END

*D_NET *568 0.389786
*CONN
*P gpio_inp_dis[5] O
*I *874:gpio_inp_dis[5] O *D counter_gpio_config_example
*CAP
1 gpio_inp_dis[5] 0.003907
2 *874:gpio_inp_dis[5] 0.00850636
3 *568:13 0.00512259
4 *568:9 0.168115
5 *568:7 0.166899
6 *568:5 0.00850636
7 *568:5 *689:7 0
8 *568:5 *735:7 0
9 *568:5 *806:13 0.00231917
10 *568:13 *701:13 0.00319816
11 *103:27 *568:5 0
12 *172:17 gpio_inp_dis[5] 0.000786659
13 *468:15 *568:9 0.0224261
14 *480:9 *568:9 0
*RES
1 *874:gpio_inp_dis[5] *568:5 182.482 
2 *568:5 *568:7 8 
3 *568:7 *568:9 491.986 
4 *568:9 *568:13 48.9936 
5 *568:13 gpio_inp_dis[5] 17.2204 
*END

*D_NET *569 0.79207
*CONN
*P gpio_inp_dis[6] O
*I *874:gpio_inp_dis[6] O *D counter_gpio_config_example
*CAP
1 gpio_inp_dis[6] 0.0031316
2 *874:gpio_inp_dis[6] 0.00758886
3 *569:25 0.137823
4 *569:23 0.134692
5 *569:21 0.0249193
6 *569:19 0.033886
7 *569:11 0.0165556
8 *102:7 *569:11 0
9 *133:9 *569:11 0.00210205
10 *133:9 *569:19 0.00627434
11 *173:13 gpio_inp_dis[6] 0.00183189
12 *173:13 *569:25 0.284547
13 *340:7 *569:11 3.84652e-05
14 *347:7 *569:11 5.33289e-05
15 *392:11 *569:19 0.000297712
16 *393:7 *569:19 0
17 *406:9 *569:21 0.00135116
18 *407:9 *569:21 0.000305674
19 *411:9 *569:21 0.0584978
20 *412:9 *569:21 0.0648276
21 *438:9 *569:21 0.0133464
22 *536:9 *569:21 0
*RES
1 *874:gpio_inp_dis[6] *569:11 28.0723 
2 *569:11 *569:19 46.3613 
3 *569:19 *569:21 1188.28 
4 *569:21 *569:23 8 
5 *569:23 *569:25 550.418 
6 *569:25 gpio_inp_dis[6] 8.27027 
*END

*D_NET *570 0.647974
*CONN
*P gpio_inp_dis[7] O
*I *874:gpio_inp_dis[7] O *D counter_gpio_config_example
*CAP
1 gpio_inp_dis[7] 0.00545414
2 *874:gpio_inp_dis[7] 0
3 *570:14 0.0424548
4 *570:12 0.0370007
5 *570:10 0.18789
6 *570:8 0.18789
7 *570:6 0.0364338
8 *570:4 0.0364338
9 *570:6 *664:18 0.00533238
10 *570:6 *665:22 0.00313297
11 *570:10 gpio_slow_sel[6] 0
12 gpio_analog_pol[7] gpio_inp_dis[7] 0.00038764
13 gpio_dm0[7] gpio_inp_dis[7] 0.00395824
14 *92:13 *570:14 0.0700856
15 *132:9 *570:6 0.0300812
16 *261:13 *570:14 0.00143993
17 *545:22 *570:10 0
*RES
1 *874:gpio_inp_dis[7] *570:4 8 
2 *570:4 *570:6 140.063 
3 *570:6 *570:8 8 
4 *570:8 *570:10 538.955 
5 *570:10 *570:12 8 
6 *570:12 *570:14 169.893 
7 *570:14 gpio_inp_dis[7] 23.7407 
*END

*D_NET *571 0.665325
*CONN
*P gpio_inp_dis[8] O
*I *874:gpio_inp_dis[8] O *D counter_gpio_config_example
*CAP
1 gpio_inp_dis[8] 0.00189641
2 *874:gpio_inp_dis[8] 0.00401279
3 *571:26 0.184494
4 *571:24 0.182598
5 *571:22 0.084895
6 *571:20 0.0893517
7 *571:14 0.0194618
8 *571:12 0.0190178
9 gpio_analog_en[8] *571:26 0
10 gpio_analog_pol[8] gpio_inp_dis[8] 0.00038235
11 gpio_analog_pol[8] *571:26 0.0182709
12 gpio_dm0[8] *571:26 3.52047e-05
13 *263:17 *571:26 0
14 *295:20 *571:12 0.000875177
15 *433:10 *571:12 0
16 *532:17 *571:12 0.000139852
17 *534:14 *571:14 0.00718133
18 *534:28 *571:14 2.15996e-05
19 *534:28 *571:20 0.00560164
20 *534:28 *571:22 2.46216e-05
21 *534:30 *571:22 0.0470647
*RES
1 *874:gpio_inp_dis[8] *571:12 11.4176 
2 *571:12 *571:14 54.992 
3 *571:14 *571:20 18.5435 
4 *571:20 *571:22 324.643 
5 *571:22 *571:24 8 
6 *571:24 *571:26 542.948 
7 *571:26 gpio_inp_dis[8] 23.8431 
*END

*D_NET *572 0.487029
*CONN
*P gpio_inp_dis[9] O
*I *874:gpio_inp_dis[9] O *D counter_gpio_config_example
*CAP
1 gpio_inp_dis[9] 0.00343482
2 *874:gpio_inp_dis[9] 0.080252
3 *572:9 0.163015
4 *572:7 0.15958
5 *572:5 0.080252
6 *572:5 *808:5 0
7 gpio_analog_pol[9] gpio_inp_dis[9] 0.000490406
8 gpio_analog_pol[9] *572:9 5.51976e-06
9 *132:13 *572:9 0
10 *176:21 *572:9 0
*RES
1 *874:gpio_inp_dis[9] *572:5 1844.6 
2 *572:5 *572:7 8 
3 *572:7 *572:9 462.491 
4 *572:9 gpio_inp_dis[9] 8.16573 
*END

*D_NET *661 0.593214
*CONN
*P gpio_oeb[0] O
*I *874:gpio_oeb[0] O *D counter_gpio_config_example
*CAP
1 gpio_oeb[0] 3.47783e-05
2 *874:gpio_oeb[0] 0.00453862
3 *661:29 0.113968
4 *661:27 0.113933
5 *661:25 0.0258014
6 *661:23 0.0258289
7 *661:21 0.00224804
8 *661:19 0.00222054
9 *661:17 0.00386485
10 *661:15 0.00386485
11 *661:13 0.00453862
12 *661:13 *703:177 0.000121859
13 *661:13 *712:5 0
14 *661:13 *749:13 0.000146682
15 *661:13 *779:16 0.000406242
16 *661:13 *787:9 0.00858701
17 *661:13 *795:5 0
18 *661:13 *804:9 0.000981424
19 *661:17 *672:11 0.000621571
20 *661:17 *716:19 0.0196794
21 *661:21 *705:41 0.000948212
22 *661:25 *705:41 0.0645875
23 *661:29 *793:19 0
24 gpio_ib_mode_sel[0] *661:29 0.00183365
25 *103:13 *661:25 0
26 *106:13 *661:21 0
27 *106:13 *661:25 0
28 *205:17 *661:17 0.00162857
29 *238:17 *661:17 0.00625254
30 *259:29 *661:17 0.00480898
31 *278:21 *661:21 0.00316221
32 *397:17 *661:29 0.175013
33 *425:17 *661:13 0.00274328
34 *562:9 *661:13 0.000850079
*RES
1 *874:gpio_oeb[0] *661:13 38.5703 
2 *661:13 *661:15 15 
3 *661:15 *661:17 212.156 
4 *661:17 *661:19 15 
5 *661:19 *661:21 66.5239 
6 *661:21 *661:23 0.621429 
7 *661:23 *661:25 836.484 
8 *661:25 *661:27 8 
9 *661:27 *661:29 437.13 
10 *661:29 gpio_oeb[0] 0.133467 
*END

*D_NET *662 0.91359
*CONN
*P gpio_oeb[10] O
*I *874:gpio_oeb[10] O *D counter_gpio_config_example
*CAP
1 gpio_oeb[10] 0.00151413
2 *874:gpio_oeb[10] 0.00058809
3 *662:31 0.138042
4 *662:29 0.136528
5 *662:27 0.184727
6 *662:25 0.184932
7 *662:15 0.00152496
8 *662:13 0.00190775
9 *662:13 *690:13 0.000322875
10 *662:15 *820:9 0.000741147
11 *662:25 *690:13 0.00063834
12 *662:25 *777:9 0.000641947
13 *662:27 *732:13 0.000238637
14 *662:27 *816:13 0.0101588
15 *662:31 gpio_vtrip_sel[10] 0
16 *662:31 *680:17 0.0270074
17 *122:77 *662:27 0
18 *342:21 *662:15 0
19 *398:17 gpio_oeb[10] 0.00192596
20 *398:17 *662:31 0.221192
21 *432:13 *662:13 0
22 *534:14 *662:27 0
23 *534:28 *662:27 0
24 *534:30 *662:27 0
25 *567:13 *662:13 0
26 *567:15 *662:15 0.000826465
27 *567:15 *662:25 0.000133475
*RES
1 *874:gpio_oeb[10] *662:13 26.809 
2 *662:13 *662:15 36.3536 
3 *662:15 *662:25 33.5927 
4 *662:25 *662:27 568.59 
5 *662:27 *662:29 8 
6 *662:29 *662:31 541.059 
7 *662:31 gpio_oeb[10] 21.734 
*END

*D_NET *663 0.815482
*CONN
*P gpio_oeb[11] O
*I *874:gpio_oeb[11] O *D counter_gpio_config_example
*CAP
1 gpio_oeb[11] 1.6262e-05
2 *874:gpio_oeb[11] 0.000999258
3 *663:13 0.187286
4 *663:11 0.187269
5 *663:9 0.0938604
6 *663:7 0.0948596
7 *663:13 *723:9 0
8 *663:13 *795:9 0
9 *663:13 *811:17 0.0137145
10 gpio_ib_mode_sel[11] *663:13 0
11 *229:9 *663:9 0
12 *233:9 *663:9 0
13 *271:9 *663:9 0
14 *300:9 *663:9 0.00978664
15 *311:9 *663:9 0.225997
16 *359:9 *663:9 0.00127712
17 *360:9 *663:9 0
18 *399:17 *663:13 0
19 *414:7 *663:7 0.000207203
20 *415:17 *663:13 0
21 *438:7 *663:7 0.000208681
*RES
1 *874:gpio_oeb[11] *663:7 10.8187 
2 *663:7 *663:9 3122.95 
3 *663:9 *663:11 8 
4 *663:11 *663:13 556.399 
5 *663:13 gpio_oeb[11] 0.0644 
*END

*D_NET *664 0.743115
*CONN
*P gpio_oeb[12] O
*I *874:gpio_oeb[12] O *D counter_gpio_config_example
*CAP
1 gpio_oeb[12] 0.0034834
2 *874:gpio_oeb[12] 0.00567442
3 *664:30 0.0161171
4 *664:28 0.0126337
5 *664:26 0.090944
6 *664:24 0.090944
7 *664:22 0.171493
8 *664:20 0.171493
9 *664:18 0.041628
10 *664:16 0.0473024
11 *664:18 *665:14 2.11066e-05
12 *664:18 *665:22 0.0516284
13 *129:9 *664:16 0.00299344
14 *135:11 *664:18 0
15 *144:8 *664:18 0.000456124
16 *147:7 *664:16 2.15023e-05
17 *190:19 *664:18 0
18 *210:8 *664:16 0.000611658
19 *217:13 *664:22 0
20 *232:16 *664:16 0.000147188
21 *298:16 *664:16 2.93823e-05
22 *301:9 *664:18 0
23 *344:17 *664:18 0
24 *400:17 gpio_oeb[12] 0.000782549
25 *400:17 *664:30 0.028382
26 *407:7 *664:16 0
27 *428:11 *664:16 0.00020813
28 *433:8 *664:18 0.000476838
29 *433:10 *664:16 0
30 *532:17 *664:18 0.000310367
31 *570:6 *664:18 0.00533238
*RES
1 *874:gpio_oeb[12] *664:16 43.4861 
2 *664:16 *664:18 1185.46 
3 *664:18 *664:20 8 
4 *664:20 *664:22 492.158 
5 *664:22 *664:24 8 
6 *664:24 *664:26 2113 
7 *664:26 *664:28 8 
8 *664:28 *664:30 53.508 
9 *664:30 gpio_oeb[12] 8.53533 
*END

*D_NET *665 0.854036
*CONN
*P gpio_oeb[13] O
*I *874:gpio_oeb[13] O *D counter_gpio_config_example
*CAP
1 gpio_oeb[13] 0.000108226
2 *874:gpio_oeb[13] 0.00460644
3 *665:34 0.187635
4 *665:32 0.187527
5 *665:30 0.09481
6 *665:28 0.0967554
7 *665:22 0.0200232
8 *665:20 0.0181642
9 *665:14 0.00469283
10 *665:30 *732:13 0.00117557
11 *665:30 *816:13 0.105275
12 *665:34 *797:17 0
13 gpio_ib_mode_sel[13] *665:34 0.000242342
14 *129:9 *665:14 0.0019077
15 *135:9 *665:14 3.4377e-06
16 *144:8 *665:22 0.000397746
17 *201:7 *665:14 3.97574e-06
18 *298:16 *665:14 0.000559837
19 *322:13 *665:28 0.00401787
20 *344:17 *665:14 0.000325813
21 *360:13 *665:28 0
22 *401:17 *665:34 0
23 *433:8 *665:22 0.000476838
24 *433:10 *665:14 0
25 *456:11 *665:30 0.0693988
26 *532:17 *665:14 0.000835694
27 *532:17 *665:22 0.000310367
28 *570:6 *665:22 0.00313297
29 *664:18 *665:14 2.11066e-05
30 *664:18 *665:22 0.0516284
*RES
1 *874:gpio_oeb[13] *665:14 40.3464 
2 *665:14 *665:20 31.0979 
3 *665:20 *665:22 657.772 
4 *665:22 *665:28 23.784 
5 *665:28 *665:30 3011.67 
6 *665:30 *665:32 8 
7 *665:32 *665:34 545.408 
8 *665:34 gpio_oeb[13] 0.415333 
*END

*D_NET *666 1.14485
*CONN
*P gpio_oeb[14] O
*I *874:gpio_oeb[14] O *D counter_gpio_config_example
*CAP
1 gpio_oeb[14] 0.00193051
2 *874:gpio_oeb[14] 0.00441565
3 *666:21 0.11702
4 *666:19 0.115089
5 *666:17 0.143624
6 *666:15 0.148039
7 *666:17 *808:13 0
8 *666:21 gpio_vtrip_sel[14] 0.0056774
9 gpio_ib_mode_sel[14] gpio_oeb[14] 0.000495323
10 *133:9 *666:15 0.000625906
11 *241:7 *666:15 0.000363265
12 *281:25 *666:21 0.066318
13 *322:9 *666:17 0
14 *323:9 *666:17 0
15 *402:13 *666:21 0.29404
16 *411:7 *666:15 0.000235491
17 *412:9 *666:17 0.0429504
18 *439:7 *666:15 1.39834e-05
19 *439:9 *666:17 0.204009
20 *535:9 *666:17 0
21 *542:9 *666:17 0
*RES
1 *874:gpio_oeb[14] *666:15 34.9723 
2 *666:15 *666:17 4489.26 
3 *666:17 *666:19 8 
4 *666:19 *666:21 553.896 
5 *666:21 gpio_oeb[14] 24.6183 
*END

*D_NET *667 0.692079
*CONN
*P gpio_oeb[15] O
*I *874:gpio_oeb[15] O *D counter_gpio_config_example
*CAP
1 gpio_oeb[15] 9.62404e-05
2 *874:gpio_oeb[15] 0.0227656
3 *667:13 0.1353
4 *667:11 0.135204
5 *667:9 0.166255
6 *667:7 0.166255
7 *667:5 0.0227656
8 *667:5 *679:5 0
9 *667:5 *721:13 0
10 *667:5 *776:5 0
11 *667:9 *671:17 0
12 *667:9 *704:9 0
13 *667:13 *711:21 0.0434374
14 *667:13 *834:13 0
15 gpio_ib_mode_sel[15] gpio_oeb[15] 0
16 *403:21 *667:13 0
17 *465:11 *667:5 0
*RES
1 *874:gpio_oeb[15] *667:5 511.384 
2 *667:5 *667:7 8 
3 *667:7 *667:9 477.732 
4 *667:9 *667:11 8 
5 *667:11 *667:13 3145.49 
6 *667:13 gpio_oeb[15] 1.86429 
*END

*D_NET *668 0.588506
*CONN
*P gpio_oeb[16] O
*I *874:gpio_oeb[16] O *D counter_gpio_config_example
*CAP
1 gpio_oeb[16] 0.139344
2 *874:gpio_oeb[16] 0.0193088
3 *668:11 0.139344
4 *668:9 0.127879
5 *668:7 0.127879
6 *668:5 0.0193088
7 *668:5 *704:5 0
8 *668:5 *783:11 0
9 *668:9 *818:9 0.0154433
10 gpio_ib_mode_sel[16] gpio_oeb[16] 0
11 *271:19 *668:5 0
12 *481:7 *668:9 0
13 *545:22 *668:9 0
*RES
1 *874:gpio_oeb[16] *668:5 418.418 
2 *668:5 *668:7 8 
3 *668:7 *668:9 379.673 
4 *668:9 *668:11 8 
5 *668:11 gpio_oeb[16] 3239.79 
*END

*D_NET *669 0.719203
*CONN
*P gpio_oeb[17] O
*I *874:gpio_oeb[17] O *D counter_gpio_config_example
*CAP
1 gpio_oeb[17] 0.203124
2 *874:gpio_oeb[17] 0.000620954
3 *669:11 0.203124
4 *669:9 0.0435534
5 *669:7 0.0441743
6 *669:7 *703:35 0
7 gpio_ib_mode_sel[17] gpio_oeb[17] 0
8 *133:13 *669:9 0.0628696
9 *404:15 *669:9 0.148965
10 *457:23 *669:9 0.0127722
*RES
1 *874:gpio_oeb[17] *669:7 24.7564 
2 *669:7 *669:9 1593.32 
3 *669:9 *669:11 15 
4 *669:11 gpio_oeb[17] 4702.41 
*END

*D_NET *670 0.65301
*CONN
*P gpio_oeb[18] O
*I *874:gpio_oeb[18] O *D counter_gpio_config_example
*CAP
1 gpio_oeb[18] 0.202957
2 *874:gpio_oeb[18] 0.00016367
3 *670:11 0.202957
4 *670:9 0.0153296
5 *670:7 0.0154933
6 *670:7 *725:11 0
7 *670:7 *780:5 0
8 *670:9 *683:9 0.00315132
9 *670:9 *771:9 0.000425837
10 gpio_ib_mode_sel[18] gpio_oeb[18] 0
11 *443:15 *670:9 0.00776218
12 *448:9 *670:9 0.0902539
13 *450:17 *670:9 0.0908801
14 *459:23 *670:9 0.00172726
15 *469:23 *670:9 0.0111936
16 *483:15 *670:9 0.00121981
17 *567:15 *670:9 0.00949445
*RES
1 *874:gpio_oeb[18] *670:7 17.7136 
2 *670:7 *670:9 1155.96 
3 *670:9 *670:11 15 
4 *670:11 gpio_oeb[18] 4695.37 
*END

*D_NET *671 0.702766
*CONN
*P gpio_oeb[19] O
*I *874:gpio_oeb[19] O *D counter_gpio_config_example
*CAP
1 gpio_oeb[19] 0.0864784
2 *874:gpio_oeb[19] 0.000104043
3 *671:19 0.0864784
4 *671:17 0.0433395
5 *671:15 0.0433395
6 *671:13 0.0692254
7 *671:11 0.0693294
8 gpio_oeb[19] *715:13 0.246828
9 *671:11 *673:11 0
10 *671:11 *683:7 0
11 *671:11 *683:9 2.60531e-05
12 *671:13 *673:13 0.0116629
13 *671:13 *706:13 0.0395598
14 *671:13 *707:5 0.0063947
15 gpio_ib_mode_sel[19] gpio_oeb[19] 0
16 *667:9 *671:17 0
*RES
1 *874:gpio_oeb[19] *671:11 17.58 
2 *671:11 *671:13 277.659 
3 *671:13 *671:15 8 
4 *671:15 *671:17 120.57 
5 *671:17 *671:19 8 
6 *671:19 gpio_oeb[19] 3153.86 
*END

*D_NET *672 0.597075
*CONN
*P gpio_oeb[1] O
*I *874:gpio_oeb[1] O *D counter_gpio_config_example
*CAP
1 gpio_oeb[1] 0.00120646
2 *874:gpio_oeb[1] 0.000132542
3 *672:17 0.0922527
4 *672:15 0.0910462
5 *672:13 0.0199767
6 *672:11 0.0269487
7 *672:7 0.00710456
8 *672:7 *767:5 0
9 *672:7 *788:5 0
10 *672:11 *694:9 0.0212632
11 *672:11 *716:19 0.00336179
12 *672:13 *694:13 0.00732053
13 *672:13 *782:29 0.000524768
14 gpio_ib_mode_sel[1] gpio_oeb[1] 0.0002534
15 gpio_ib_mode_sel[1] *672:17 0.000303039
16 *108:13 *672:13 0
17 *146:13 *672:13 0
18 *205:17 *672:11 0.0212669
19 *278:11 *672:17 0.000370809
20 *278:13 *672:13 0
21 *303:9 *672:17 0.0462994
22 *408:17 *672:17 0.218073
23 *474:11 *672:13 0.0298135
24 *562:13 *672:13 0.00893468
25 *661:17 *672:11 0.000621571
*RES
1 *874:gpio_oeb[1] *672:7 10.1854 
2 *672:7 *672:11 49.4437 
3 *672:11 *672:13 666.399 
4 *672:13 *672:15 8 
5 *672:15 *672:17 435.872 
6 *672:17 gpio_oeb[1] 3.04173 
*END

*D_NET *673 0.658667
*CONN
*P gpio_oeb[20] O
*I *874:gpio_oeb[20] O *D counter_gpio_config_example
*CAP
1 gpio_oeb[20] 0.00125425
2 *874:gpio_oeb[20] 0.000104028
3 *673:17 0.018278
4 *673:15 0.0170238
5 *673:13 0.259366
6 *673:11 0.25947
7 *673:11 *683:9 2.60531e-05
8 *673:11 *810:11 0
9 *673:13 *687:13 0.0028134
10 *673:13 *706:13 0
11 *673:13 *757:5 0.0338497
12 *673:13 *810:13 0.0176428
13 *673:17 *676:9 0
14 gpio_ib_mode_sel[20] gpio_oeb[20] 0
15 *361:13 *673:17 0.037176
16 *671:11 *673:11 0
17 *671:13 *673:13 0.0116629
*RES
1 *874:gpio_oeb[20] *673:11 17.58 
2 *673:11 *673:13 841.624 
3 *673:13 *673:15 8 
4 *673:15 *673:17 71.7117 
5 *673:17 gpio_oeb[20] 33.2507 
*END

*D_NET *674 0.690063
*CONN
*P gpio_oeb[21] O
*I *874:gpio_oeb[21] O *D counter_gpio_config_example
*CAP
1 gpio_oeb[21] 0.0027666
2 *874:gpio_oeb[21] 0.000783487
3 *674:13 0.16378
4 *674:11 0.161013
5 *674:9 0.00879092
6 *674:7 0.0095744
7 gpio_oeb[21] *718:23 0.0155559
8 *674:7 *805:11 0
9 *674:9 *813:9 0.000937914
10 *674:9 *827:9 0.0263158
11 *674:13 *749:25 0
12 gpio_ib_mode_sel[21] gpio_oeb[21] 0
13 *95:13 gpio_oeb[21] 0.00665533
14 *99:13 gpio_oeb[21] 0.00042722
15 *102:13 gpio_oeb[21] 0.00474957
16 *169:13 *674:13 0
17 *170:13 *674:13 0
18 *214:13 *674:13 0
19 *357:21 *674:13 0.255251
20 *454:11 gpio_oeb[21] 0.000214251
21 *462:19 *674:9 0.00197062
22 *529:13 *674:9 0.0312771
*RES
1 *874:gpio_oeb[21] *674:7 20.7496 
2 *674:7 *674:9 60.4203 
3 *674:9 *674:11 8 
4 *674:11 *674:13 4703.37 
5 *674:13 gpio_oeb[21] 49.9392 
*END

*D_NET *675 0.511355
*CONN
*P gpio_oeb[22] O
*I *874:gpio_oeb[22] O *D counter_gpio_config_example
*CAP
1 gpio_oeb[22] 0.00349429
2 *874:gpio_oeb[22] 0.100941
3 *675:5 0.104435
4 *675:5 *678:5 0
5 *675:5 *729:13 0.0177394
6 gpio_analog_en[22] *675:5 0.284169
7 gpio_dm0[22] *675:5 0
8 gpio_ib_mode_sel[22] gpio_oeb[22] 0
9 *190:27 *675:5 0
10 *366:13 gpio_oeb[22] 0.000575259
*RES
1 *874:gpio_oeb[22] *675:5 3641.23 
2 *675:5 gpio_oeb[22] 41.618 
*END

*D_NET *676 0.386593
*CONN
*P gpio_oeb[23] O
*I *874:gpio_oeb[23] O *D counter_gpio_config_example
*CAP
1 gpio_oeb[23] 0.00152536
2 *874:gpio_oeb[23] 0.140224
3 *676:9 0.0266053
4 *676:7 0.0250799
5 *676:5 0.140224
6 *676:5 *691:7 0
7 *676:5 *754:13 0.00780552
8 *676:5 *757:5 0
9 *676:5 *791:13 0.0396074
10 *676:5 *810:13 0.00552128
11 *676:9 *720:9 0
12 gpio_ib_mode_sel[23] gpio_oeb[23] 0
13 *279:13 *676:9 0
14 *361:13 *676:9 0
15 *538:13 *676:9 0
16 *673:17 *676:9 0
*RES
1 *874:gpio_oeb[23] *676:5 3627.14 
2 *676:5 *676:7 8 
3 *676:7 *676:9 73.5579 
4 *676:9 gpio_oeb[23] 39.6825 
*END

*D_NET *677 0.460063
*CONN
*P gpio_oeb[24] O
*I *874:gpio_oeb[24] O *D counter_gpio_config_example
*CAP
1 gpio_oeb[24] 0.00322597
2 *874:gpio_oeb[24] 0.00880338
3 *677:17 0.02456
4 *677:15 0.021334
5 *677:13 0.108828
6 *677:11 0.118196
7 *677:5 0.018171
8 gpio_oeb[24] *809:17 0
9 *677:5 gpio_slow_sel[22] 0.00778026
10 *677:5 *689:7 0
11 *677:5 *751:11 0
12 *677:13 *681:7 6.43972e-05
13 *677:13 *812:13 0.1491
14 *677:17 *809:17 0
15 gpio_ib_mode_sel[24] gpio_oeb[24] 0
16 *103:27 *677:5 0
*RES
1 *874:gpio_oeb[24] *677:5 225.444 
2 *677:5 *677:11 41.9019 
3 *677:11 *677:13 3220.14 
4 *677:13 *677:15 8 
5 *677:15 *677:17 59.948 
6 *677:17 gpio_oeb[24] 7.22307 
*END

*D_NET *678 0.293307
*CONN
*P gpio_oeb[25] O
*I *874:gpio_oeb[25] O *D counter_gpio_config_example
*CAP
1 gpio_oeb[25] 0.00305799
2 *874:gpio_oeb[25] 0.00331126
3 *678:19 0.0199485
4 *678:15 0.0168905
5 *678:13 0.107025
6 *678:11 0.107025
7 *678:9 0.0123552
8 *678:5 0.0156665
9 gpio_oeb[25] gpio_vtrip_sel[25] 0
10 *678:5 *688:5 0
11 *678:5 *753:13 0.000116093
12 *678:9 *732:11 0
13 *678:9 *791:11 0.00248597
14 *678:19 gpio_vtrip_sel[25] 0
15 gpio_analog_pol[22] *678:5 0
16 gpio_dm0[22] *678:5 0.00542589
17 gpio_ib_mode_sel[25] gpio_oeb[25] 0
18 gpio_ib_mode_sel[25] *678:19 0
19 *180:13 *678:19 0
20 *228:13 *678:9 0
21 *229:13 *678:9 0
22 *675:5 *678:5 0
*RES
1 *874:gpio_oeb[25] *678:5 89.5168 
2 *678:5 *678:9 43.1755 
3 *678:9 *678:11 8 
4 *678:11 *678:13 2477.12 
5 *678:13 *678:15 8 
6 *678:15 *678:19 47.3779 
7 *678:19 gpio_oeb[25] 6.846 
*END

*D_NET *679 0.270922
*CONN
*P gpio_oeb[26] O
*I *874:gpio_oeb[26] O *D counter_gpio_config_example
*CAP
1 gpio_oeb[26] 0.00163202
2 *874:gpio_oeb[26] 0.0861833
3 *679:9 0.0257962
4 *679:7 0.0241642
5 *679:5 0.0861833
6 *679:5 *758:5 0
7 *679:5 *773:13 0.046591
8 gpio_ib_mode_sel[26] gpio_oeb[26] 0.000371865
9 *667:5 *679:5 0
*RES
1 *874:gpio_oeb[26] *679:5 2333.37 
2 *679:5 *679:7 8 
3 *679:7 *679:9 66.2592 
4 *679:9 gpio_oeb[26] 30.8479 
*END

*D_NET *680 0.386169
*CONN
*P gpio_oeb[27] O
*I *874:gpio_oeb[27] O *D counter_gpio_config_example
*CAP
1 gpio_oeb[27] 0.00311729
2 *874:gpio_oeb[27] 0.00437638
3 *680:17 0.0304044
4 *680:15 0.0272871
5 *680:13 0.0330975
6 *680:11 0.0356946
7 *680:5 0.00697347
8 *680:5 *691:7 0
9 *680:5 *759:5 0
10 *680:11 *791:11 0.00470862
11 *680:13 *720:5 0.0536202
12 *680:13 *809:13 0.159226
13 *680:17 *812:17 0
14 gpio_ib_mode_sel[27] gpio_oeb[27] 0.000656388
15 gpio_ib_mode_sel[27] *680:17 0
16 *228:13 *680:11 0
17 *229:13 *680:11 0
18 *662:31 *680:17 0.0270074
*RES
1 *874:gpio_oeb[27] *680:5 89.5168 
2 *680:5 *680:11 25.9307 
3 *680:11 *680:13 2027.78 
4 *680:13 *680:15 8 
5 *680:15 *680:17 90.9459 
6 *680:17 gpio_oeb[27] 7.49933 
*END

*D_NET *681 0.217542
*CONN
*P gpio_oeb[28] O
*I *874:gpio_oeb[28] O *D counter_gpio_config_example
*CAP
1 gpio_oeb[28] 0.0031067
2 *874:gpio_oeb[28] 2.27091e-05
3 *681:21 0.0186702
4 *681:15 0.0875035
5 *681:13 0.0788211
6 *681:7 0.0155439
7 *681:5 0.00868536
8 *681:7 *734:7 0
9 *681:7 *789:5 0
10 *681:7 *812:13 0.0051245
11 gpio_ib_mode_sel[28] gpio_oeb[28] 0
12 gpio_ib_mode_sel[28] *681:21 0
13 *549:17 gpio_oeb[28] 0
14 *549:17 *681:21 0
15 *677:13 *681:7 6.43972e-05
*RES
1 *874:gpio_oeb[28] *681:5 0.548929 
2 *681:5 *681:7 226.221 
3 *681:7 *681:13 35.2901 
4 *681:13 *681:15 1668.6 
5 *681:15 *681:21 49.0648 
6 *681:21 gpio_oeb[28] 6.85347 
*END

*D_NET *682 0.317017
*CONN
*P gpio_oeb[29] O
*I *874:gpio_oeb[29] O *D counter_gpio_config_example
*CAP
1 gpio_oeb[29] 7.90416e-05
2 *874:gpio_oeb[29] 0.0473487
3 *682:9 0.0420733
4 *682:7 0.0419942
5 *682:5 0.0473487
6 *682:5 *745:5 0
7 *682:5 *774:5 0
8 *682:5 *796:13 0.127923
9 *682:9 *814:25 0
10 gpio_ib_mode_sel[29] *682:9 0.0102501
*RES
1 *874:gpio_oeb[29] *682:5 1673.46 
2 *682:5 *682:7 8 
3 *682:7 *682:9 119.254 
4 *682:9 gpio_oeb[29] 0.303333 
*END

*D_NET *683 0.456034
*CONN
*P gpio_oeb[2] O
*I *874:gpio_oeb[2] O *D counter_gpio_config_example
*CAP
1 gpio_oeb[2] 8.68242e-05
2 *874:gpio_oeb[2] 0.000160442
3 *683:17 0.141572
4 *683:15 0.141485
5 *683:13 0.0170761
6 *683:11 0.0170761
7 *683:9 0.0155549
8 *683:7 0.0157154
9 *683:7 *771:7 0
10 *683:9 *700:9 0.000622176
11 *683:9 *703:35 0.000152756
12 *683:9 *706:11 2.60531e-05
13 *683:9 *724:11 2.60531e-05
14 *683:9 *725:11 4.86653e-05
15 *683:9 *727:19 0.00241564
16 *683:9 *754:11 2.60531e-05
17 *683:9 *760:13 0.000110558
18 *683:9 *765:11 4.86653e-05
19 *683:9 *801:11 4.86653e-05
20 *683:9 *810:11 4.86653e-05
21 *683:9 *815:11 0.000258834
22 *683:9 *815:15 0.0215495
23 *683:9 *836:11 0.000450676
24 gpio_ib_mode_sel[2] *683:17 0
25 *874:gpio_in[1] *683:9 0.00377286
26 *874:gpio_in[20] *683:9 4.86653e-05
27 *874:gpio_in[21] *683:9 2.60531e-05
28 *874:gpio_in[22] *683:9 4.86653e-05
29 *874:gpio_in[23] *683:9 2.60531e-05
30 *874:gpio_in[2] *683:9 0.000110291
31 *874:gpio_in[30] *683:9 2.60531e-05
32 *874:gpio_in[31] *683:9 4.86653e-05
33 *874:gpio_in[32] *683:9 2.60531e-05
34 *874:gpio_in[33] *683:9 4.86653e-05
35 *874:gpio_in[34] *683:9 2.60531e-05
36 *874:gpio_in[3] *683:9 0
37 *874:gpio_in[5] *683:9 4.86653e-05
38 *874:gpio_in[6] *683:9 2.60531e-05
39 *177:11 *683:17 0
40 *281:13 *683:13 0
41 *309:13 *683:9 0
42 *312:9 *683:17 0.0190538
43 *376:11 *683:17 0.000458429
44 *419:17 *683:17 0
45 *443:15 *683:9 0.00108669
46 *444:11 *683:13 0.0467056
47 *446:11 *683:13 0.000118818
48 *447:13 *683:9 0.000444215
49 *448:9 *683:9 0.000994585
50 *450:17 *683:9 0.000719351
51 *459:23 *683:9 0.00126649
52 *469:23 *683:9 0.0021167
53 *483:15 *683:9 0.000298112
54 *567:15 *683:9 0.00045828
55 *567:23 *683:9 0.000267417
56 *670:9 *683:9 0.00315132
57 *671:11 *683:7 0
58 *671:11 *683:9 2.60531e-05
59 *673:11 *683:9 2.60531e-05
*RES
1 *874:gpio_oeb[2] *683:7 10.8896 
2 *683:7 *683:9 54.4096 
3 *683:9 *683:11 8 
4 *683:11 *683:13 602.309 
5 *683:13 *683:15 8 
6 *683:15 *683:17 433.181 
7 *683:17 gpio_oeb[2] 0.3332 
*END

*D_NET *684 0.200716
*CONN
*P gpio_oeb[30] O
*I *874:gpio_oeb[30] O *D counter_gpio_config_example
*CAP
1 gpio_oeb[30] 0.00284019
2 *874:gpio_oeb[30] 0.00476795
3 *684:19 0.0211133
4 *684:15 0.0182731
5 *684:13 0.058121
6 *684:11 0.0634631
7 *684:5 0.01011
8 *684:5 *708:5 0
9 *684:5 *764:5 0
10 *684:11 *812:11 0.00691499
11 gpio_ib_mode_sel[30] gpio_oeb[30] 0.000635541
12 *228:13 *684:11 0.0144686
13 *359:13 *684:11 0
14 *420:18 gpio_oeb[30] 7.95147e-06
15 *420:18 *684:19 0
*RES
1 *874:gpio_oeb[30] *684:5 97.2639 
2 *684:5 *684:11 43.4475 
3 *684:11 *684:13 1347.44 
4 *684:13 *684:15 8 
5 *684:15 *684:19 46.7245 
6 *684:19 gpio_oeb[30] 6.81613 
*END

*D_NET *685 0.225455
*CONN
*P gpio_oeb[31] O
*I *874:gpio_oeb[31] O *D counter_gpio_config_example
*CAP
1 gpio_oeb[31] 0.00342738
2 *874:gpio_oeb[31] 0.00507929
3 *685:17 0.0246742
4 *685:15 0.0212468
5 *685:13 0.0317281
6 *685:11 0.0372884
7 *685:5 0.0106396
8 gpio_oeb[31] *729:17 0
9 *685:5 *688:21 0
10 *685:5 *768:5 0
11 *685:5 *787:7 0
12 *685:5 *807:13 0.000363013
13 *685:13 *725:21 0.0749957
14 *685:13 *811:13 0.00488854
15 *685:17 *729:17 0
16 gpio_ib_mode_sel[31] gpio_oeb[31] 0
17 *359:13 *685:11 0.0111236
18 *536:13 *685:11 0
*RES
1 *874:gpio_oeb[31] *685:5 105.011 
2 *685:5 *685:11 37.2651 
3 *685:11 *685:13 1117.85 
4 *685:13 *685:15 8 
5 *685:15 *685:17 54.9677 
6 *685:17 gpio_oeb[31] 7.42467 
*END

*D_NET *686 0.133571
*CONN
*P gpio_oeb[32] O
*I *874:gpio_oeb[32] O *D counter_gpio_config_example
*CAP
1 gpio_oeb[32] 0.00177846
2 *874:gpio_oeb[32] 0.0170912
3 *686:9 0.0303666
4 *686:7 0.0285881
5 *686:5 0.0170912
6 gpio_oeb[32] gpio_vtrip_sel[32] 0
7 *686:5 *742:7 0
8 *686:5 *772:13 0.037989
9 *686:5 *793:9 0
10 *686:5 *814:13 0.000544505
11 gpio_ib_mode_sel[32] gpio_oeb[32] 0
12 *422:17 gpio_oeb[32] 0.000121628
13 *462:15 gpio_oeb[32] 0
*RES
1 *874:gpio_oeb[32] *686:5 554.345 
2 *686:5 *686:7 8 
3 *686:7 *686:9 74.0731 
4 *686:9 gpio_oeb[32] 30.2108 
*END

*D_NET *687 0.121709
*CONN
*P gpio_oeb[33] O
*I *874:gpio_oeb[33] O *D counter_gpio_config_example
*CAP
1 gpio_oeb[33] 0.0032663
2 *874:gpio_oeb[33] 0.00327615
3 *687:17 0.0409804
4 *687:15 0.0377141
5 *687:13 0.011984
6 *687:11 0.0135026
7 *687:5 0.00479475
8 *687:5 *721:5 0
9 *687:5 *788:5 0
10 *687:13 *707:5 0
11 *687:13 *757:5 0
12 *406:13 *687:11 0.00273488
13 *423:17 gpio_oeb[33] 0.000642805
14 *423:17 *687:17 0
15 *537:13 *687:11 0
16 *673:13 *687:13 0.0028134
*RES
1 *874:gpio_oeb[33] *687:5 62.7539 
2 *687:5 *687:11 21.2939 
3 *687:11 *687:13 274.112 
4 *687:13 *687:15 8 
5 *687:15 *687:17 98.588 
6 *687:17 gpio_oeb[33] 7.69347 
*END

*D_NET *688 0.0844474
*CONN
*P gpio_oeb[34] O
*I *874:gpio_oeb[34] O *D counter_gpio_config_example
*CAP
1 gpio_oeb[34] 0.00334145
2 *874:gpio_oeb[34] 0.00243722
3 *688:25 0.0318693
4 *688:23 0.0285278
5 *688:21 0.0026504
6 *688:19 0.00509498
7 *688:5 0.0048818
8 *688:5 *812:5 0
9 *688:25 *721:9 0.000914019
10 *688:25 *816:11 0.00122825
11 gpio_analog_pol[22] *688:5 0.00298373
12 gpio_ib_mode_sel[22] *688:21 0
13 gpio_ib_mode_sel[34] gpio_oeb[34] 0
14 gpio_ib_mode_sel[34] *688:25 0
15 gpio_inp_dis[22] *688:5 0
16 *141:13 *688:19 4.86254e-05
17 *317:13 *688:19 0.000469753
18 *424:44 gpio_oeb[34] 0
19 *536:13 *688:25 0
20 *678:5 *688:5 0
21 *685:5 *688:21 0
*RES
1 *874:gpio_oeb[34] *688:5 58.5282 
2 *688:5 *688:19 22.8432 
3 *688:19 *688:21 57.8964 
4 *688:21 *688:23 8 
5 *688:23 *688:25 75.404 
6 *688:25 gpio_oeb[34] 7.23053 
*END

*D_NET *689 0.125686
*CONN
*P gpio_oeb[35] O
*I *874:gpio_oeb[35] O *D counter_gpio_config_example
*CAP
1 gpio_oeb[35] 0.0100403
2 *874:gpio_oeb[35] 0.000315446
3 *689:13 0.011994
4 *689:11 0.00195374
5 *689:9 0.0118809
6 *689:7 0.0121964
7 gpio_oeb[35] gpio_vtrip_sel[35] 0.0113866
8 *689:9 *735:9 0.0326284
9 *689:9 *779:16 0.00368196
10 *689:9 *787:9 0.00034346
11 *689:13 *691:13 0.00390984
12 gpio_ib_mode_sel[35] gpio_oeb[35] 0.000151828
13 *101:9 *689:13 0
14 *260:9 *689:13 0.0081354
15 *425:17 *689:9 0.0170682
16 *568:5 *689:7 0
17 *677:5 *689:7 0
*RES
1 *874:gpio_oeb[35] *689:7 13.0025 
2 *689:7 *689:9 63.7691 
3 *689:9 *689:11 8 
4 *689:11 *689:13 105.084 
5 *689:13 gpio_oeb[35] 36.8316 
*END

*D_NET *690 0.204512
*CONN
*P gpio_oeb[36] O
*I *874:gpio_oeb[36] O *D counter_gpio_config_example
*CAP
1 gpio_oeb[36] 0.00440179
2 *874:gpio_oeb[36] 0.00186891
3 *690:17 0.0255258
4 *690:15 0.021124
5 *690:13 0.026063
6 *690:11 0.0279319
7 *690:11 *727:19 0.00135355
8 *690:11 *760:11 0.00249392
9 *690:11 *771:7 0
10 *690:11 *782:15 0.00015512
11 *690:11 *830:5 0
12 *690:13 *710:11 2.60531e-05
13 *690:13 *726:9 0.00225645
14 *690:13 *727:19 0.000767543
15 *690:13 *728:11 4.86653e-05
16 *690:13 *729:11 2.60531e-05
17 *690:13 *730:9 0.0050379
18 *690:13 *730:17 0.00967615
19 *690:13 *731:9 0.0025545
20 *690:13 *731:17 0.0100331
21 *690:13 *743:11 2.60531e-05
22 *690:13 *753:11 6.76126e-05
23 *690:13 *755:11 2.60531e-05
24 *690:13 *761:11 4.86653e-05
25 *690:13 *762:11 2.60531e-05
26 *690:13 *777:9 0.0131522
27 *690:13 *798:11 4.86653e-05
28 *690:13 *800:11 2.60531e-05
29 *690:13 *806:11 4.86653e-05
30 *690:13 *807:11 4.86653e-05
31 *690:13 *814:11 4.86653e-05
32 *690:13 *817:11 4.86653e-05
33 *690:13 *835:11 2.60531e-05
34 *690:17 *777:13 0.028727
35 gpio_ib_mode_sel[36] gpio_oeb[36] 0.00100863
36 *433:16 *690:13 0.000316838
37 *458:11 *690:17 0
38 *459:23 *690:13 0.00288769
39 *469:21 *690:13 0.000496759
40 *469:23 *690:13 0.00501428
41 *470:15 *690:11 5.93445e-05
42 *470:15 *690:13 0.000885605
43 *567:13 *690:13 4.02281e-06
44 *567:15 *690:11 0.00028371
45 *567:15 *690:13 0.00888058
46 *662:13 *690:13 0.000322875
47 *662:25 *690:13 0.00063834
*RES
1 *874:gpio_oeb[36] *690:11 18.4601 
2 *690:11 *690:13 86.3949 
3 *690:13 *690:15 8 
4 *690:15 *690:17 707.248 
5 *690:17 gpio_oeb[36] 18.7044 
*END

*D_NET *691 0.182712
*CONN
*P gpio_oeb[37] O
*I *874:gpio_oeb[37] O *D counter_gpio_config_example
*CAP
1 gpio_oeb[37] 0.0114138
2 *874:gpio_oeb[37] 0.000135913
3 *691:13 0.0321395
4 *691:11 0.0207257
5 *691:9 0.0137082
6 *691:7 0.0138441
7 *691:9 *694:9 0.016612
8 *691:9 *734:9 0.0193995
9 *691:9 *735:9 0.00121582
10 *691:9 *822:6 2.27096e-05
11 gpio_ib_mode_sel[37] gpio_oeb[37] 0.000122379
12 *101:9 *691:13 0
13 *107:7 gpio_oeb[37] 0
14 *173:9 *691:13 0
15 *205:17 *691:9 0.0400628
16 *260:9 *691:13 0.00702344
17 *373:7 gpio_oeb[37] 0.00237662
18 *529:9 *691:13 0
19 *676:5 *691:7 0
20 *680:5 *691:7 0
21 *689:13 *691:13 0.00390984
*RES
1 *874:gpio_oeb[37] *691:7 10.1854 
2 *691:7 *691:9 78.9675 
3 *691:9 *691:11 8 
4 *691:11 *691:13 552.305 
5 *691:13 gpio_oeb[37] 36.0775 
*END

*D_NET *692 0.0723782
*CONN
*P gpio_oeb[38] O
*I *874:gpio_oeb[38] O *D counter_gpio_config_example
*CAP
1 gpio_oeb[38] 0.000120401
2 *874:gpio_oeb[38] 0.00250693
3 *692:13 0.00580038
4 *692:11 0.00567998
5 *692:9 0.00976287
6 *692:5 0.0122698
7 *692:5 *727:19 6.3704e-06
8 *692:5 *815:11 5.79922e-05
9 *692:5 *827:7 0
10 *692:9 *695:14 0
11 *692:9 *786:9 0.0206319
12 gpio_ib_mode_sel[38] *692:13 0.0153335
13 *252:42 *692:13 0.000208147
*RES
1 *874:gpio_oeb[38] *692:5 47.2596 
2 *692:5 *692:9 47.8981 
3 *692:9 *692:11 8 
4 *692:11 *692:13 196.848 
5 *692:13 gpio_oeb[38] 2.91036 
*END

*D_NET *693 0.143864
*CONN
*P gpio_oeb[39] O
*I *874:gpio_oeb[39] O *D counter_gpio_config_example
*CAP
1 gpio_oeb[39] 0.0012699
2 *874:gpio_oeb[39] 0.010097
3 *693:9 0.0618352
4 *693:7 0.0605653
5 *693:5 0.010097
6 *693:5 *778:7 0
7 *693:9 *736:16 0
8 gpio_analog_en[38] *693:9 0
9 gpio_analog_pol[39] *693:9 0
10 gpio_ib_mode_sel[39] gpio_oeb[39] 0
11 *431:13 *693:9 0
*RES
1 *874:gpio_oeb[39] *693:5 219.105 
2 *693:5 *693:7 8 
3 *693:7 *693:9 180.118 
4 *693:9 gpio_oeb[39] 33.7375 
*END

*D_NET *694 0.493625
*CONN
*P gpio_oeb[3] O
*I *874:gpio_oeb[3] O *D counter_gpio_config_example
*CAP
1 gpio_oeb[3] 0.00387232
2 *874:gpio_oeb[3] 0.000149628
3 *694:17 0.115404
4 *694:15 0.111532
5 *694:13 0.00667177
6 *694:11 0.00667177
7 *694:9 0.0149986
8 *694:7 0.0151482
9 gpio_oeb[3] *826:22 0.00055993
10 *694:7 *709:5 0
11 *694:7 *747:5 0
12 *694:9 *735:9 0.00193001
13 *694:9 *787:9 0.0363836
14 *694:13 *787:15 0.00067841
15 *694:17 *826:22 0
16 gpio_ib_mode_sel[3] gpio_oeb[3] 0
17 *108:13 *694:13 0
18 *188:9 *694:17 0.037949
19 *205:17 *694:9 0.00119293
20 *230:9 *694:17 0.0925458
21 *238:17 *694:9 0.000567389
22 *259:29 *694:9 0.00168777
23 *282:17 *694:9 0.000485797
24 *672:11 *694:9 0.0212632
25 *672:13 *694:13 0.00732053
26 *691:9 *694:9 0.016612
*RES
1 *874:gpio_oeb[3] *694:7 10.8896 
2 *694:7 *694:9 78.8816 
3 *694:9 *694:11 8 
4 *694:11 *694:13 195.936 
5 *694:13 *694:15 8 
6 *694:15 *694:17 430.549 
7 *694:17 gpio_oeb[3] 8.92547 
*END

*D_NET *695 0.366915
*CONN
*P gpio_oeb[40] O
*I *874:gpio_oeb[40] O *D counter_gpio_config_example
*CAP
1 gpio_oeb[40] 0.000102405
2 *874:gpio_oeb[40] 0.000452589
3 *695:22 0.00388081
4 *695:20 0.00395171
5 *695:18 0.00532939
6 *695:16 0.00515609
7 *695:14 0.0529803
8 *695:12 0.0529803
9 *695:10 0.0707542
10 *695:8 0.0712068
11 *695:8 *823:6 0.000783414
12 *695:10 *753:13 0
13 *695:14 *786:9 0
14 gpio_ib_mode_sel[40] *695:22 0
15 *205:17 *695:8 0.00015726
16 *388:17 *695:14 0.067223
17 *428:15 *695:14 0.0319567
18 *477:11 *695:14 0
19 *692:9 *695:14 0
*RES
1 *874:gpio_oeb[40] *695:8 17.5587 
2 *695:8 *695:10 193.629 
3 *695:10 *695:12 8 
4 *695:12 *695:14 213.735 
5 *695:14 *695:16 8 
6 *695:16 *695:18 117.574 
7 *695:18 *695:20 3.95643 
8 *695:20 *695:22 85.7571 
9 *695:22 gpio_oeb[40] 2.47536 
*END

*D_NET *696 0.346502
*CONN
*P gpio_oeb[41] O
*I *874:gpio_oeb[41] O *D counter_gpio_config_example
*CAP
1 gpio_oeb[41] 0.000881772
2 *874:gpio_oeb[41] 0.000341924
3 *696:24 0.00103105
4 *696:18 0.00274807
5 *696:16 0.00259879
6 *696:14 0.0906593
7 *696:12 0.0906593
8 *696:10 0.0551824
9 *696:8 0.0555243
10 *696:8 *823:6 0.000898642
11 *696:10 *807:13 0.040166
12 *696:10 *835:13 0
13 *696:14 *825:14 0
14 gpio_ib_mode_sel[41] gpio_oeb[41] 2.09873e-05
15 *205:17 *696:8 0.000193757
16 *211:17 *696:14 0
17 *345:13 *696:18 0
18 *345:17 *696:18 0
19 *432:23 gpio_oeb[41] 0
20 *432:23 *696:18 0.0055953
*RES
1 *874:gpio_oeb[41] *696:8 17.7304 
2 *696:8 *696:10 211.654 
3 *696:10 *696:12 8 
4 *696:12 *696:14 268.69 
5 *696:14 *696:16 8 
6 *696:16 *696:18 85.5396 
7 *696:18 *696:24 32.5271 
8 *696:24 gpio_oeb[41] 19.6164 
*END

*D_NET *697 0.333777
*CONN
*P gpio_oeb[42] O
*I *874:gpio_oeb[42] O *D counter_gpio_config_example
*CAP
1 gpio_oeb[42] 8.86941e-05
2 *874:gpio_oeb[42] 0.00372522
3 *697:13 0.00728702
4 *697:11 0.00719832
5 *697:9 0.0746812
6 *697:7 0.0746812
7 *697:5 0.00372522
8 *697:5 *737:5 0
9 *697:5 *753:11 0
10 *301:13 *697:9 0.16239
11 *302:13 *697:9 0
*RES
1 *874:gpio_oeb[42] *697:5 75.4311 
2 *697:5 *697:7 8 
3 *697:7 *697:9 315.874 
4 *697:9 *697:11 8 
5 *697:11 *697:13 168.676 
6 *697:13 gpio_oeb[42] 2.14393 
*END

*D_NET *698 0.375697
*CONN
*P gpio_oeb[43] O
*I *874:gpio_oeb[43] O *D counter_gpio_config_example
*CAP
1 gpio_oeb[43] 0.00742695
2 *874:gpio_oeb[43] 0.00334915
3 *698:11 0.00742695
4 *698:9 0.0845726
5 *698:7 0.0845726
6 *698:5 0.00334915
7 *698:5 *782:15 0
8 *698:5 *792:11 0
9 *302:13 *698:9 0.184999
10 *434:13 *698:9 0
*RES
1 *874:gpio_oeb[43] *698:5 68.3882 
2 *698:5 *698:7 8 
3 *698:7 *698:9 358.378 
4 *698:9 *698:11 8 
5 *698:11 gpio_oeb[43] 175.647 
*END

*D_NET *699 0.34671
*CONN
*P gpio_oeb[4] O
*I *874:gpio_oeb[4] O *D counter_gpio_config_example
*CAP
1 gpio_oeb[4] 0.00156227
2 *874:gpio_oeb[4] 0.00169679
3 *699:9 0.165163
4 *699:7 0.165298
5 *699:7 *752:5 0
6 *699:9 gpio_vtrip_sel[4] 0
7 gpio_ib_mode_sel[4] gpio_oeb[4] 0.00188895
8 gpio_ib_mode_sel[4] *699:9 0.00290029
9 *142:13 *699:9 0
10 *290:17 *699:9 0.00524974
11 *553:18 *699:9 0.00295024
*RES
1 *874:gpio_oeb[4] *699:7 37.6525 
2 *699:7 *699:9 484.945 
3 *699:9 gpio_oeb[4] 21.8908 
*END

*D_NET *700 0.627721
*CONN
*P gpio_oeb[5] O
*I *874:gpio_oeb[5] O *D counter_gpio_config_example
*CAP
1 gpio_oeb[5] 0.00420212
2 *874:gpio_oeb[5] 5.99462e-05
3 *700:13 0.038664
4 *700:11 0.0344618
5 *700:9 0.0741028
6 *700:7 0.0741627
7 *700:7 *801:11 0
8 gpio_analog_pol[1] *700:13 0.000930606
9 gpio_ib_mode_sel[5] gpio_oeb[5] 0
10 *874:gpio_in[12] *700:9 0.000719984
11 *874:gpio_in[14] *700:9 0.000589325
12 *874:gpio_in[17] *700:9 0.000871775
13 *348:13 *700:13 0.00603648
14 *436:17 gpio_oeb[5] 0
15 *443:15 *700:9 0.0347146
16 *445:15 *700:9 0.00356771
17 *446:15 *700:9 0.00234887
18 *459:23 *700:9 0.00517406
19 *480:11 *700:13 0.00766046
20 *483:11 *700:13 0.102129
21 *483:15 *700:9 0.236703
22 *683:9 *700:9 0.000622176
*RES
1 *874:gpio_oeb[5] *700:7 16.305 
2 *700:7 *700:9 2632.89 
3 *700:9 *700:11 15 
4 *700:11 *700:13 1301.49 
5 *700:13 gpio_oeb[5] 17.6497 
*END

*D_NET *701 0.716046
*CONN
*P gpio_oeb[6] O
*I *874:gpio_oeb[6] O *D counter_gpio_config_example
*CAP
1 gpio_oeb[6] 0.00353719
2 *874:gpio_oeb[6] 0.000981229
3 *701:13 0.0698971
4 *701:11 0.0663599
5 *701:9 0.10232
6 *701:7 0.103301
7 *701:7 *713:7 0
8 *701:7 *819:7 0
9 *701:9 *702:9 0.000678365
10 *701:9 *713:17 0.0522088
11 *701:9 *714:15 0.00030525
12 *701:9 *794:9 0.253597
13 *701:9 *832:9 0
14 gpio_ib_mode_sel[6] gpio_oeb[6] 0.00250103
15 *529:13 *701:9 0.0561284
16 *564:10 *701:9 0.00103282
17 *568:13 *701:13 0.00319816
*RES
1 *874:gpio_oeb[6] *701:7 24.2711 
2 *701:7 *701:9 504.523 
3 *701:9 *701:11 8 
4 *701:11 *701:13 1545.35 
5 *701:13 gpio_oeb[6] 37.1319 
*END

*D_NET *702 0.733497
*CONN
*P gpio_oeb[7] O
*I *874:gpio_oeb[7] O *D counter_gpio_config_example
*CAP
1 gpio_oeb[7] 0.00574605
2 *874:gpio_oeb[7] 0.00109312
3 *702:13 0.112232
4 *702:11 0.106486
5 *702:9 0.0772486
6 *702:7 0.0783417
7 gpio_oeb[7] gpio_vtrip_sel[7] 0
8 *702:7 *780:5 0
9 *702:7 *836:11 0
10 *702:9 *718:9 0.0270156
11 *702:9 *794:9 0.241198
12 *702:9 *832:9 0.0321406
13 gpio_ib_mode_sel[7] gpio_oeb[7] 0.00038764
14 *564:10 *702:9 0.0509289
15 *701:9 *702:9 0.000678365
*RES
1 *874:gpio_oeb[7] *702:7 25.6796 
2 *702:7 *702:9 467.514 
3 *702:9 *702:11 8 
4 *702:11 *702:13 2467.96 
5 *702:13 gpio_oeb[7] 21.9767 
*END

*D_NET *703 0.626948
*CONN
*P gpio_oeb[8] O
*I *874:gpio_oeb[8] O *D counter_gpio_config_example
*CAP
1 gpio_oeb[8] 0.0137573
2 *874:gpio_oeb[8] 0.00652068
3 *703:187 0.0713213
4 *703:185 0.057564
5 *703:183 0.151775
6 *703:181 0.151775
7 *703:179 0.0140845
8 *703:177 0.0148425
9 *703:167 0.0108609
10 *703:131 0.0226564
11 *703:91 0.0241517
12 *703:63 0.0204956
13 *703:35 0.0154181
14 gpio_oeb[8] gpio_vtrip_sel[8] 0
15 *703:35 *784:24 5.63641e-05
16 *703:35 *784:28 0.0105949
17 *703:63 *784:24 0.00599892
18 *703:91 *784:14 0.00582781
19 *703:91 *784:24 0.00141349
20 *703:131 *784:14 0.00859807
21 *703:167 *784:12 0.0176211
22 *703:177 *740:16 0.000645065
23 *703:177 *749:13 0.000150023
24 *703:177 *796:5 0
25 *703:177 *826:14 0.000122779
26 *703:179 *796:5 0
27 gpio_ib_mode_sel[8] gpio_oeb[8] 0
28 *122:177 *703:131 0.000140259
29 *251:24 *703:131 0.000280518
30 *439:13 gpio_oeb[8] 0
31 *661:13 *703:177 0.000121859
32 *669:7 *703:35 0
33 *683:9 *703:35 0.000152756
*RES
1 *874:gpio_oeb[8] *703:35 47.5213 
2 *703:35 *703:63 34.0032 
3 *703:63 *703:91 43.7472 
4 *703:91 *703:131 48.832 
5 *703:131 *703:167 46.2037 
6 *703:167 *703:177 27.8209 
7 *703:177 *703:179 303.713 
8 *703:179 *703:181 8 
9 *703:181 *703:183 438.663 
10 *703:183 *703:185 8 
11 *703:185 *703:187 1340.4 
12 *703:187 gpio_oeb[8] 44.8247 
*END

*D_NET *704 0.578228
*CONN
*P gpio_oeb[9] O
*I *874:gpio_oeb[9] O *D counter_gpio_config_example
*CAP
1 gpio_oeb[9] 0.0073505
2 *874:gpio_oeb[9] 0.0238509
3 *704:13 0.0658613
4 *704:11 0.0585108
5 *704:9 0.173089
6 *704:7 0.173089
7 *704:5 0.0238509
8 *704:5 *781:13 0
9 *136:13 *704:13 0.043228
10 *271:19 *704:5 6.21966e-05
11 *440:13 gpio_oeb[9] 0.00933567
12 *667:9 *704:9 0
13 *668:5 *704:5 0
*RES
1 *874:gpio_oeb[9] *704:5 518.427 
2 *704:5 *704:7 8 
3 *704:7 *704:9 496.881 
4 *704:9 *704:11 8 
5 *704:11 *704:13 1362.94 
6 *704:13 gpio_oeb[9] 32.6764 
*END

*D_NET *705 0.498251
*CONN
*P gpio_out[0] O
*I *874:gpio_out[0] O *D counter_gpio_config_example
*CAP
1 gpio_out[0] 9.78076e-05
2 *874:gpio_out[0] 0.0196644
3 *705:45 0.147008
4 *705:43 0.146911
5 *705:41 0.0273625
6 *705:39 0.0283089
7 *705:35 0.00121973
8 *705:29 0.0199377
9 *705:29 *749:13 0.00173389
10 *705:29 *757:5 0
11 *705:29 *779:16 0.000466553
12 *705:29 *787:9 0.000968775
13 *705:29 *824:8 0.00223768
14 *705:29 *825:8 3.98645e-05
15 *705:29 *826:10 0.000496303
16 *705:29 *829:12 4.93791e-05
17 *705:29 *829:16 0.0110778
18 *705:39 *740:18 0
19 *705:39 *749:21 0.00260796
20 gpio_holdover[0] *705:45 0.00437458
21 *104:13 *705:41 0
22 *146:17 *705:39 0.00175742
23 *146:27 *705:29 0.000152344
24 *177:17 *705:45 0
25 *205:17 *705:29 0.00682314
26 *240:19 *705:29 0.000429359
27 *278:13 *705:41 0
28 *278:21 *705:41 0.00306419
29 *367:15 *705:41 0.000258035
30 *367:17 *705:41 0.000698032
31 *372:23 *705:29 2.50324e-05
32 *410:13 *705:41 0.00366794
33 *425:17 *705:29 0.00124828
34 *545:18 *705:29 2.83764e-05
35 *661:21 *705:41 0.000948212
36 *661:25 *705:41 0.0645875
*RES
1 *874:gpio_out[0] *705:29 46.6579 
2 *705:29 *705:35 26.1382 
3 *705:35 *705:39 44.2071 
4 *705:39 *705:41 916.245 
5 *705:41 *705:43 8 
6 *705:43 *705:45 437.216 
7 *705:45 gpio_out[0] 0.387333 
*END

*D_NET *706 0.758451
*CONN
*P gpio_out[10] O
*I *874:gpio_out[10] O *D counter_gpio_config_example
*CAP
1 gpio_out[10] 5.20855e-05
2 *874:gpio_out[10] 0.00117945
3 *706:17 0.166566
4 *706:15 0.166514
5 *706:13 0.167163
6 *706:11 0.168342
7 *706:11 *711:15 0
8 *706:11 *727:19 0.000613864
9 *706:11 *813:7 0
10 *706:13 *707:5 0.000257997
11 *706:13 *767:13 0.00855748
12 *706:13 *790:5 0.0396188
13 *706:17 gpio_vtrip_sel[10] 0
14 gpio_holdover[10] *706:17 0
15 *310:17 *706:17 0
16 *671:13 *706:13 0.0395598
17 *673:13 *706:13 0
18 *683:9 *706:11 2.60531e-05
*RES
1 *874:gpio_out[10] *706:11 20.5853 
2 *706:11 *706:13 565.671 
3 *706:13 *706:15 8 
4 *706:15 *706:17 487.491 
5 *706:17 gpio_out[10] 0.206267 
*END

*D_NET *707 0.56975
*CONN
*P gpio_out[11] O
*I *874:gpio_out[11] O *D counter_gpio_config_example
*CAP
1 gpio_out[11] 0.00379518
2 *874:gpio_out[11] 0.0244179
3 *707:17 0.0196864
4 *707:15 0.0158913
5 *707:13 0.0767262
6 *707:11 0.0767262
7 *707:9 0.143017
8 *707:7 0.143017
9 *707:5 0.0244179
10 *707:5 *790:5 0
11 gpio_holdover[11] gpio_out[11] 0.000246455
12 *355:17 gpio_out[11] 0
13 *355:17 *707:17 0.0351558
14 *671:13 *707:5 0.0063947
15 *687:13 *707:5 0
16 *706:13 *707:5 0.000257997
*RES
1 *874:gpio_out[11] *707:5 547.302 
2 *707:5 *707:7 8 
3 *707:7 *707:9 412.989 
4 *707:9 *707:11 8 
5 *707:11 *707:13 1784.1 
6 *707:13 *707:15 8 
7 *707:15 *707:17 66.388 
8 *707:17 gpio_out[11] 8.6772 
*END

*D_NET *708 0.666193
*CONN
*P gpio_out[12] O
*I *874:gpio_out[12] O *D counter_gpio_config_example
*CAP
1 gpio_out[12] 0.00849278
2 *874:gpio_out[12] 0.0164835
3 *708:13 0.103787
4 *708:11 0.0952939
5 *708:9 0.159422
6 *708:7 0.159422
7 *708:5 0.0164835
8 gpio_out[12] *796:17 0
9 *708:5 *773:5 0
10 *708:9 *712:9 0
11 gpio_holdover[12] gpio_out[12] 0.0135462
12 *137:17 *708:13 0.0560288
13 *335:17 *708:9 0.037233
14 *684:5 *708:5 0
*RES
1 *874:gpio_out[12] *708:5 354.328 
2 *708:5 *708:7 8 
3 *708:7 *708:9 480.823 
4 *708:9 *708:11 8 
5 *708:11 *708:13 2213.01 
6 *708:13 gpio_out[12] 38.7505 
*END

*D_NET *709 0.707745
*CONN
*P gpio_out[13] O
*I *874:gpio_out[13] O *D counter_gpio_config_example
*CAP
1 gpio_out[13] 0.17703
2 *874:gpio_out[13] 0.131337
3 *709:12 0
4 *709:7 0.17703
5 *709:5 0.131337
6 *709:5 *722:13 0
7 *709:5 *762:13 0.0910107
8 *709:5 *763:5 0
9 gpio_dm2[13] gpio_out[13] 0
10 gpio_holdover[13] gpio_out[13] 0
11 *357:25 gpio_out[13] 0
12 *401:17 gpio_out[13] 0
13 *694:7 *709:5 0
*RES
1 *874:gpio_out[13] *709:5 3031.32 
2 *709:5 *709:7 8 
3 *709:7 gpio_out[13] 517.587 
4 gpio_out[13] *709:12 0.0908108 
*END

*D_NET *710 0.906347
*CONN
*P gpio_out[14] O
*I *874:gpio_out[14] O *D counter_gpio_config_example
*CAP
1 gpio_out[14] 0.00391737
2 *874:gpio_out[14] 0.000127935
3 *710:21 0.0397768
4 *710:19 0.0358594
5 *710:17 0.173067
6 *710:15 0.173067
7 *710:13 0.224429
8 *710:11 0.224557
9 *710:11 *814:11 0
10 *710:11 *819:7 0
11 *710:13 *798:13 0
12 *710:13 *814:13 0.0296772
13 *192:13 *710:17 0
14 *358:17 gpio_out[14] 0.00184208
15 *690:13 *710:11 2.60531e-05
*RES
1 *874:gpio_out[14] *710:11 17.58 
2 *710:11 *710:13 665.314 
3 *710:13 *710:15 8 
4 *710:15 *710:17 504.394 
5 *710:17 *710:19 8 
6 *710:19 *710:21 834.019 
7 *710:21 gpio_out[14] 18.4935 
*END

*D_NET *711 1.3211
*CONN
*P gpio_out[15] O
*I *874:gpio_out[15] O *D counter_gpio_config_example
*CAP
1 gpio_out[15] 0.00079573
2 *874:gpio_out[15] 0.00248055
3 *711:21 0.277191
4 *711:19 0.276395
5 *711:17 0.202497
6 *711:15 0.204978
7 *711:15 *727:19 0.000177951
8 *711:17 *714:19 0.0829677
9 *711:17 *715:9 0.0086811
10 *711:17 *717:9 0.00506776
11 *711:17 *744:9 0.0375579
12 *711:17 *756:9 0.0355474
13 *711:17 *831:9 0.0447212
14 *711:17 *833:9 0.0313958
15 *711:21 *834:13 0.023295
16 gpio_holdover[15] gpio_out[15] 0
17 *95:13 gpio_out[15] 0.00183995
18 *226:13 *711:21 0
19 *313:13 *711:21 0
20 *389:13 *711:17 0.0315957
21 *477:11 *711:17 0.0104735
22 *667:13 *711:21 0.0434374
23 *706:11 *711:15 0
*RES
1 *874:gpio_out[15] *711:15 22.8465 
2 *711:15 *711:17 53.4539 
3 *711:17 *711:19 0.891 
4 *711:19 *711:21 849.875 
5 *711:21 gpio_out[15] 20.8859 
*END

*D_NET *712 0.575054
*CONN
*P gpio_out[16] O
*I *874:gpio_out[16] O *D counter_gpio_config_example
*CAP
1 gpio_out[16] 0.147738
2 *874:gpio_out[16] 0.0161514
3 *712:11 0.147738
4 *712:9 0.121258
5 *712:7 0.121258
6 *712:5 0.0161514
7 *712:5 *809:5 0
8 gpio_holdover[16] gpio_out[16] 0
9 *423:17 *712:9 0.00475942
10 *661:13 *712:5 0
11 *708:9 *712:9 0
*RES
1 *874:gpio_out[16] *712:5 347.285 
2 *712:5 *712:7 8 
3 *712:7 *712:9 353.741 
4 *712:9 *712:11 8 
5 *712:11 gpio_out[16] 3310.92 
*END

*D_NET *713 0.683106
*CONN
*P gpio_out[17] O
*I *874:gpio_out[17] O *D counter_gpio_config_example
*CAP
1 gpio_out[17] 0.203384
2 *874:gpio_out[17] 0.00113948
3 *713:19 0.203384
4 *713:17 0.0657302
5 *713:15 0.0659844
6 *713:9 0.00865221
7 *713:7 0.00953752
8 *713:7 *730:7 0
9 *713:9 *714:19 0.00411379
10 *713:9 *832:9 0.0344855
11 gpio_holdover[17] gpio_out[17] 0
12 *564:10 *713:9 0.0344855
13 *701:7 *713:7 0
14 *701:9 *713:17 0.0522088
*RES
1 *874:gpio_out[17] *713:7 27.7925 
2 *713:7 *713:9 65.0571 
3 *713:9 *713:15 27.1946 
4 *713:15 *713:17 1452.3 
5 *713:17 *713:19 15 
6 *713:19 gpio_out[17] 4708.4 
*END

*D_NET *714 0.904704
*CONN
*P gpio_out[18] O
*I *874:gpio_out[18] O *D counter_gpio_config_example
*CAP
1 gpio_out[18] 0.000626055
2 *874:gpio_out[18] 0.00159814
3 *714:21 0.276769
4 *714:19 0.372146
5 *714:15 0.0976012
6 *714:15 *715:7 0
7 *714:19 *715:9 0.000245825
8 *714:19 *717:9 0.00049165
9 *714:19 *744:9 0.000373665
10 *714:19 *756:9 0.000281054
11 *714:19 *831:9 0.000324675
12 *714:19 *832:9 0.0190963
13 *714:19 *833:9 0.000432446
14 gpio_dm2[18] gpio_out[18] 0
15 gpio_holdover[18] gpio_out[18] 0
16 gpio_holdover[18] *714:21 0.0308763
17 *389:13 *714:19 0.000245825
18 *529:13 *714:15 8.34672e-05
19 *564:10 *714:19 0.0161256
20 *701:9 *714:15 0.00030525
21 *711:17 *714:19 0.0829677
22 *713:9 *714:19 0.00411379
*RES
1 *874:gpio_out[18] *714:15 34.0165 
2 *714:15 *714:19 28.346 
3 *714:19 *714:21 847.209 
4 *714:21 gpio_out[18] 28.9344 
*END

*D_NET *715 0.743299
*CONN
*P gpio_out[19] O
*I *874:gpio_out[19] O *D counter_gpio_config_example
*CAP
1 gpio_out[19] 0.00157319
2 *874:gpio_out[19] 0.00142892
3 *715:13 0.15636
4 *715:11 0.154787
5 *715:9 0.0165135
6 *715:7 0.0179425
7 *715:9 *756:9 0.0694657
8 gpio_dm1[19] gpio_out[19] 0
9 gpio_holdover[19] gpio_out[19] 0
10 gpio_ib_mode_sel[19] *715:13 0
11 gpio_oeb[19] *715:13 0.246828
12 *389:13 *715:9 0.0694726
13 *711:17 *715:9 0.0086811
14 *714:15 *715:7 0
15 *714:19 *715:9 0.000245825
*RES
1 *874:gpio_out[19] *715:7 33.4268 
2 *715:7 *715:9 130.831 
3 *715:9 *715:11 8 
4 *715:11 *715:13 4705.48 
5 *715:13 gpio_out[19] 31.6392 
*END

*D_NET *716 0.486068
*CONN
*P gpio_out[1] O
*I *874:gpio_out[1] O *D counter_gpio_config_example
*CAP
1 gpio_out[1] 0.000186723
2 *874:gpio_out[1] 0.000911312
3 *716:27 0.14079
4 *716:25 0.140604
5 *716:23 0.0173533
6 *716:21 0.0173533
7 *716:19 0.00785719
8 *716:17 0.0087685
9 *716:17 *764:5 0
10 *716:17 *823:6 0.000299518
11 *716:19 *793:11 0.0387163
12 *716:27 gpio_vtrip_sel[1] 0
13 *130:11 *716:27 0.00110457
14 *148:13 *716:23 0
15 *205:17 *716:17 0.00141589
16 *205:17 *716:19 0.000153178
17 *222:9 *716:27 0.0160263
18 *238:17 *716:19 0.000229312
19 *259:29 *716:19 0.00432885
20 *282:17 *716:19 0.000180711
21 *320:17 *716:27 0
22 *479:11 *716:23 0.0495882
23 *531:13 *716:23 0.000372507
24 *533:13 *716:23 0.000312195
25 *533:21 *716:23 0
26 *544:13 *716:23 0
27 *561:13 *716:23 0.0164745
28 *661:17 *716:19 0.0196794
29 *672:11 *716:19 0.00336179
*RES
1 *874:gpio_out[1] *716:17 37.408 
2 *716:17 *716:19 417.973 
3 *716:19 *716:21 15 
4 *716:21 *716:23 681.365 
5 *716:23 *716:25 8 
6 *716:25 *716:27 434.554 
7 *716:27 gpio_out[1] 0.723333 
*END

*D_NET *717 0.581166
*CONN
*P gpio_out[20] O
*I *874:gpio_out[20] O *D counter_gpio_config_example
*CAP
1 gpio_out[20] 9.04367e-05
2 *874:gpio_out[20] 0.0014876
3 *717:13 0.145385
4 *717:11 0.145295
5 *717:9 0.0208877
6 *717:7 0.0223753
7 *717:7 *806:11 0
8 gpio_holdover[20] gpio_out[20] 0
9 gpio_holdover[20] *717:13 0
10 *375:17 *717:13 0.00257862
11 *389:13 *717:9 0.0466351
12 *436:13 *717:13 0.0139919
13 *477:11 *717:9 0
14 *541:13 *717:13 0.154429
15 *567:27 *717:13 0.02245
16 *711:17 *717:9 0.00506776
17 *714:19 *717:9 0.00049165
*RES
1 *874:gpio_out[20] *717:7 34.8354 
2 *717:7 *717:9 87.9835 
3 *717:9 *717:11 8 
4 *717:11 *717:13 4718.15 
5 *717:13 gpio_out[20] 1.86429 
*END

*D_NET *718 0.546781
*CONN
*P gpio_out[21] O
*I *874:gpio_out[21] O *D counter_gpio_config_example
*CAP
1 gpio_out[21] 3.72438e-05
2 *874:gpio_out[21] 0.00105289
3 *718:23 0.00438264
4 *718:13 0.216064
5 *718:11 0.211718
6 *718:9 0.0101755
7 *718:7 0.0112284
8 *718:7 *743:11 0
9 *718:9 *794:9 0.0043835
10 gpio_holdover[21] gpio_out[21] 0
11 gpio_oeb[21] *718:23 0.0155559
12 *95:13 *718:23 0.000525115
13 *99:13 *718:23 0.00781053
14 *564:10 *718:9 0.0368315
15 *702:9 *718:9 0.0270156
*RES
1 *874:gpio_out[21] *718:7 26.3839 
2 *718:7 *718:9 69.608 
3 *718:9 *718:11 8 
4 *718:11 *718:13 4708.29 
5 *718:13 *718:23 49.5232 
6 *718:23 gpio_out[21] 0.776786 
*END

*D_NET *719 0.365549
*CONN
*P gpio_out[22] O
*I *874:gpio_out[22] O *D counter_gpio_config_example
*CAP
1 gpio_out[22] 0.0629437
2 *874:gpio_out[22] 0.0674454
3 *719:11 0.0674606
4 *719:5 0.0719623
5 *719:5 *751:13 0.0879374
6 *719:5 *775:5 0
7 *719:5 *792:13 0.0077993
8 *719:5 *834:5 0
9 *719:11 *765:17 0
10 gpio_holdover[22] gpio_out[22] 0
*RES
1 *874:gpio_out[22] *719:5 2198.15 
2 *719:5 *719:11 28.3349 
3 *719:11 gpio_out[22] 1460.06 
*END

*D_NET *720 0.388276
*CONN
*P gpio_out[23] O
*I *874:gpio_out[23] O *D counter_gpio_config_example
*CAP
1 gpio_out[23] 0.00129065
2 *874:gpio_out[23] 0.133918
3 *720:9 0.0159647
4 *720:7 0.014674
5 *720:5 0.133918
6 *720:5 *802:5 0
7 *720:5 *809:13 0
8 gpio_holdover[23] gpio_out[23] 0.00287059
9 *538:13 *720:9 0.0320202
10 *676:9 *720:9 0
11 *680:13 *720:5 0.0536202
*RES
1 *874:gpio_out[23] *720:5 3620.81 
2 *720:5 *720:7 8 
3 *720:7 *720:9 61.7941 
4 *720:9 gpio_out[23] 47.4504 
*END

*D_NET *721 0.445844
*CONN
*P gpio_out[24] O
*I *874:gpio_out[24] O *D counter_gpio_config_example
*CAP
1 gpio_out[24] 0.000314464
2 *874:gpio_out[24] 0.00553719
3 *721:17 0.0248992
4 *721:15 0.0245847
5 *721:13 0.126799
6 *721:11 0.126799
7 *721:9 0.0109623
8 *721:7 0.0109623
9 *721:5 0.00553719
10 *721:13 *776:5 0.00529296
11 *721:13 *789:5 0
12 *721:17 gpio_vtrip_sel[24] 0
13 *721:17 *809:17 0
14 gpio_ib_mode_sel[24] *721:17 0
15 *369:15 *721:17 0
16 *465:11 *721:13 0.0817365
17 *468:13 *721:13 0
18 *536:13 *721:9 0.0215046
19 *667:5 *721:13 0
20 *687:5 *721:5 0
21 *688:25 *721:9 0.000914019
*RES
1 *874:gpio_out[24] *721:5 112.054 
2 *721:5 *721:7 8 
3 *721:7 *721:9 42.0448 
4 *721:9 *721:11 8 
5 *721:11 *721:13 3346.91 
6 *721:13 *721:15 8 
7 *721:15 *721:17 67.648 
8 *721:17 gpio_out[24] 1.2068 
*END

*D_NET *722 0.321612
*CONN
*P gpio_out[25] O
*I *874:gpio_out[25] O *D counter_gpio_config_example
*CAP
1 gpio_out[25] 0.000263877
2 *874:gpio_out[25] 0.00383498
3 *722:17 0.0273118
4 *722:15 0.0270479
5 *722:13 0.108247
6 *722:11 0.113839
7 *722:5 0.00942631
8 *722:5 *797:5 0
9 *722:5 *834:5 0
10 *722:13 *747:5 0
11 *722:13 *761:13 0.00633924
12 *722:13 *762:13 0.0147917
13 *722:17 gpio_vtrip_sel[25] 0
14 *229:13 *722:11 0
15 *370:17 *722:17 0
16 *407:13 *722:11 0.0105098
17 *709:5 *722:13 0
*RES
1 *874:gpio_out[25] *722:5 76.1354 
2 *722:5 *722:11 36.5781 
3 *722:11 *722:13 2504.58 
4 *722:13 *722:15 8 
5 *722:15 *722:17 74.088 
6 *722:17 gpio_out[25] 1.01267 
*END

*D_NET *723 0.351261
*CONN
*P gpio_out[26] O
*I *874:gpio_out[26] O *D counter_gpio_config_example
*CAP
1 gpio_out[26] 0.000143248
2 *874:gpio_out[26] 0.102522
3 *723:9 0.0407056
4 *723:7 0.0405623
5 *723:5 0.102522
6 *723:5 *724:13 0.0648055
7 *723:5 *766:5 0
8 *723:9 *811:17 0
9 gpio_holdover[26] *723:9 0
10 *195:13 *723:9 0
11 *663:13 *723:9 0
*RES
1 *874:gpio_out[26] *723:5 2359.43 
2 *723:5 *723:7 8 
3 *723:7 *723:9 113.243 
4 *723:9 gpio_out[26] 0.549733 
*END

*D_NET *724 0.524917
*CONN
*P gpio_out[27] O
*I *874:gpio_out[27] O *D counter_gpio_config_example
*CAP
1 gpio_out[27] 0.00129211
2 *874:gpio_out[27] 0.000110011
3 *724:17 0.0413977
4 *724:15 0.0401056
5 *724:13 0.16282
6 *724:11 0.16293
7 *724:11 *765:11 0
8 *724:13 *725:13 0
9 *724:13 *736:10 0.0267072
10 *724:13 *765:13 0.0243514
11 *724:17 gpio_vtrip_sel[27] 0
12 gpio_holdover[27] gpio_out[27] 0.000371865
13 gpio_holdover[27] *724:17 0
14 *372:29 *724:17 0
15 *683:9 *724:11 2.60531e-05
16 *723:5 *724:13 0.0648055
*RES
1 *874:gpio_out[27] *724:11 17.58 
2 *724:11 *724:13 571.256 
3 *724:13 *724:15 8 
4 *724:15 *724:17 110.781 
5 *724:17 gpio_out[27] 23.1455 
*END

*D_NET *725 0.514711
*CONN
*P gpio_out[28] O
*I *874:gpio_out[28] O *D counter_gpio_config_example
*CAP
1 gpio_out[28] 0.000265823
2 *874:gpio_out[28] 0.000132988
3 *725:25 0.0235578
4 *725:23 0.023292
5 *725:21 0.0300783
6 *725:19 0.0300783
7 *725:17 0.0187953
8 *725:15 0.0187953
9 *725:13 0.0638579
10 *725:11 0.0639909
11 *725:11 *821:7 0
12 *725:13 *736:10 0
13 *725:13 *767:5 0.00441103
14 *725:13 *836:13 0.0335017
15 *725:21 *811:13 0.128909
16 *725:25 gpio_vtrip_sel[28] 0
17 *329:27 *725:25 0
18 *670:7 *725:11 0
19 *683:9 *725:11 4.86653e-05
20 *685:13 *725:21 0.0749957
21 *724:13 *725:13 0
*RES
1 *874:gpio_out[28] *725:11 17.6659 
2 *725:11 *725:13 235.137 
3 *725:13 *725:15 8 
4 *725:15 *725:17 50.6744 
5 *725:17 *725:19 8 
6 *725:19 *725:21 1641.13 
7 *725:21 *725:23 8 
8 *725:23 *725:25 61.2939 
9 *725:25 gpio_out[28] 1.02013 
*END

*D_NET *726 0.342153
*CONN
*P gpio_out[29] O
*I *874:gpio_out[29] O *D counter_gpio_config_example
*CAP
1 gpio_out[29] 0.00019711
2 *874:gpio_out[29] 6.49689e-05
3 *726:21 0.118703
4 *726:19 0.125863
5 *726:15 0.00758812
6 *726:9 0.011363
7 *726:7 0.0111969
8 *726:9 *731:9 0.030421
9 *726:15 *730:17 4.82477e-05
10 *726:15 *821:13 0.000122488
11 *726:19 *730:17 0.000181844
12 *726:19 *731:17 2.63753e-05
13 *726:19 *777:9 0.000228308
14 *726:19 *820:9 0.00925079
15 *726:21 gpio_vtrip_sel[37] 0
16 gpio_analog_pol[32] *726:21 0.000521945
17 gpio_dm0[31] *726:21 0.000845765
18 gpio_dm0[37] *726:21 0.00257482
19 gpio_dm1[37] *726:21 0.00155422
20 gpio_dm2[33] *726:21 0.000811112
21 gpio_holdover[29] gpio_out[29] 0.000156417
22 gpio_ib_mode_sel[32] *726:21 0.000625566
23 *337:21 *726:21 0.000369857
24 *338:21 *726:21 0
25 *339:35 *726:21 0.0064598
26 *381:21 *726:21 0
27 *382:17 *726:21 0
28 *425:21 *726:21 0
29 *427:21 *726:21 0
30 *433:16 *726:9 0.000141749
31 *459:21 *726:19 0.00440327
32 *459:23 *726:9 0.00159405
33 *460:19 *726:19 0.00169568
34 *462:19 *726:19 0
35 *469:21 *726:9 0.000110155
36 *553:22 *726:21 0
37 *557:21 *726:21 0.0027759
38 *690:13 *726:9 0.00225645
*RES
1 *874:gpio_out[29] *726:7 16.305 
2 *726:7 *726:9 357.943 
3 *726:9 *726:15 27.5468 
4 *726:15 *726:19 36.392 
5 *726:19 *726:21 2731.48 
6 *726:21 gpio_out[29] 8.55813 
*END

*D_NET *727 0.601618
*CONN
*P gpio_out[2] O
*I *874:gpio_out[2] O *D counter_gpio_config_example
*CAP
1 gpio_out[2] 0.00199182
2 *874:gpio_out[2] 0.00329191
3 *727:29 0.109672
4 *727:27 0.10768
5 *727:25 0.00814169
6 *727:23 0.00814169
7 *727:21 0.00495774
8 *727:19 0.00824965
9 gpio_out[2] *833:13 0
10 *727:19 *760:11 3.80633e-05
11 *727:19 *760:13 0.00292094
12 *727:19 *792:11 9.80974e-05
13 *727:19 *805:11 5.25168e-05
14 *727:19 *815:11 3.41998e-06
15 *727:21 *760:13 0.00580894
16 *727:21 *782:17 0.0186924
17 *727:25 *771:13 0.042226
18 *727:25 *815:17 0.0454786
19 gpio_analog_sel[2] *727:29 0
20 gpio_dm2[2] gpio_out[2] 0.000362027
21 gpio_holdover[2] gpio_out[2] 0.000239872
22 gpio_holdover[2] *727:29 0.000888451
23 *97:11 *727:29 0
24 *109:11 *727:29 0.00370047
25 *169:11 *727:29 0
26 *342:25 gpio_out[2] 0
27 *375:19 *727:29 0.209452
28 *469:23 *727:19 0.000315681
29 *479:15 *727:21 0.0116374
30 *546:13 *727:25 0
31 *567:15 *727:21 0.000981478
32 *567:21 *727:21 0.00126035
33 *683:9 *727:19 0.00241564
34 *690:11 *727:19 0.00135355
35 *690:13 *727:19 0.000767543
36 *692:5 *727:19 6.3704e-06
37 *706:11 *727:19 0.000613864
38 *711:15 *727:19 0.000177951
*RES
1 *874:gpio_out[2] *727:19 47.2463 
2 *727:19 *727:21 233.119 
3 *727:21 *727:23 15 
4 *727:23 *727:25 582.413 
5 *727:25 *727:27 8 
6 *727:27 *727:29 437.117 
7 *727:29 gpio_out[2] 25.3413 
*END

*D_NET *728 0.351504
*CONN
*P gpio_out[30] O
*I *874:gpio_out[30] O *D counter_gpio_config_example
*CAP
1 gpio_out[30] 0.0117478
2 *874:gpio_out[30] 0.00013963
3 *728:29 0.0459921
4 *728:27 0.0342443
5 *728:25 0.0186594
6 *728:23 0.0186594
7 *728:21 0.0482397
8 *728:19 0.0529794
9 *728:13 0.0454589
10 *728:11 0.0408588
11 *728:11 *874:resetb_l 0
12 *728:11 *729:11 0
13 *728:13 *729:13 0.00564393
14 *728:13 *806:13 0
15 *728:19 *729:13 0.0038761
16 *728:19 *806:13 0
17 *728:21 *729:13 0.00652466
18 *728:21 *806:13 0
19 *728:25 *798:17 0
20 gpio_holdover[30] gpio_out[30] 0.000475147
21 *122:177 *728:19 0.000127617
22 *135:11 *728:29 0
23 *200:17 gpio_out[30] 0
24 *376:17 gpio_out[30] 0.0178281
25 *690:13 *728:11 4.86653e-05
*RES
1 *874:gpio_out[30] *728:11 17.6659 
2 *728:11 *728:13 134.071 
3 *728:13 *728:19 18.8869 
4 *728:19 *728:21 155.187 
5 *728:21 *728:23 8 
6 *728:23 *728:25 51.9624 
7 *728:25 *728:27 8 
8 *728:27 *728:29 798.101 
9 *728:29 gpio_out[30] 46.2452 
*END

*D_NET *729 0.374315
*CONN
*P gpio_out[31] O
*I *874:gpio_out[31] O *D counter_gpio_config_example
*CAP
1 gpio_out[31] 0.00231856
2 *874:gpio_out[31] 0.000112743
3 *729:17 0.0355413
4 *729:15 0.0332228
5 *729:13 0.125649
6 *729:11 0.125761
7 *729:13 *753:13 0
8 *729:17 *817:25 0
9 gpio_analog_en[22] *729:13 0.0177394
10 gpio_holdover[31] gpio_out[31] 0.000159864
11 gpio_oeb[31] *729:17 0
12 *462:15 gpio_out[31] 0
13 *675:5 *729:13 0.0177394
14 *685:17 *729:17 0
15 *690:13 *729:11 2.60531e-05
16 *728:11 *729:11 0
17 *728:13 *729:13 0.00564393
18 *728:19 *729:13 0.0038761
19 *728:21 *729:13 0.00652466
*RES
1 *874:gpio_out[31] *729:11 17.58 
2 *729:11 *729:13 406.37 
3 *729:13 *729:15 8 
4 *729:15 *729:17 86.7384 
5 *729:17 gpio_out[31] 41.7631 
*END

*D_NET *730 0.277782
*CONN
*P gpio_out[32] O
*I *874:gpio_out[32] O *D counter_gpio_config_example
*CAP
1 gpio_out[32] 0.00358799
2 *874:gpio_out[32] 0.00016868
3 *730:21 0.0607129
4 *730:19 0.0571249
5 *730:17 0.00516016
6 *730:9 0.0105987
7 *730:7 0.00560722
8 gpio_out[32] gpio_vtrip_sel[32] 0
9 *730:7 *820:7 0
10 *730:17 *731:17 8.65763e-05
11 *730:17 *821:13 4.60157e-05
12 gpio_holdover[32] gpio_out[32] 0
13 *459:23 *730:9 0.000547972
14 *459:23 *730:17 0.000691066
15 *469:21 *730:17 0.00334842
16 *469:23 *730:9 0.025125
17 *552:9 *730:21 0.0780145
18 *567:15 *730:9 0.0120176
19 *690:13 *730:9 0.0050379
20 *690:13 *730:17 0.00967615
21 *713:7 *730:7 0
22 *726:15 *730:17 4.82477e-05
23 *726:19 *730:17 0.000181844
*RES
1 *874:gpio_out[32] *730:7 17.7136 
2 *730:7 *730:9 280.761 
3 *730:9 *730:17 45.5393 
4 *730:17 *730:19 8 
5 *730:19 *730:21 1616.48 
6 *730:21 gpio_out[32] 15.8148 
*END

*D_NET *731 0.308905
*CONN
*P gpio_out[33] O
*I *874:gpio_out[33] O *D counter_gpio_config_example
*CAP
1 gpio_out[33] 0.00338843
2 *874:gpio_out[33] 9.06516e-05
3 *731:21 0.0285763
4 *731:19 0.0251879
5 *731:17 0.00310915
6 *731:9 0.0075686
7 *731:7 0.0045501
8 *731:7 *753:11 0
9 *731:17 *777:9 0.0101242
10 *731:21 *734:13 0.0245621
11 *731:21 *777:13 0.0295796
12 gpio_analog_sel[33] gpio_out[33] 0
13 gpio_holdover[33] gpio_out[33] 0.00495937
14 *203:17 gpio_out[33] 0
15 *433:16 *731:9 0.000133453
16 *457:11 *731:21 0.0026239
17 *459:23 *731:9 0.0304296
18 *470:11 *731:17 0
19 *471:11 *731:17 0
20 *547:9 *731:21 0.0119234
21 *548:9 *731:21 0.0789768
22 *690:13 *731:9 0.0025545
23 *690:13 *731:17 0.0100331
24 *726:9 *731:9 0.030421
25 *726:19 *731:17 2.63753e-05
26 *730:17 *731:17 8.65763e-05
*RES
1 *874:gpio_out[33] *731:7 16.6571 
2 *731:7 *731:9 326.975 
3 *731:9 *731:17 44.8871 
4 *731:17 *731:19 8 
5 *731:19 *731:21 1397.45 
6 *731:21 gpio_out[33] 17.9456 
*END

*D_NET *732 0.0711452
*CONN
*P gpio_out[34] O
*I *874:gpio_out[34] O *D counter_gpio_config_example
*CAP
1 gpio_out[34] 0.0191198
2 *874:gpio_out[34] 0.00413138
3 *732:15 0.0191198
4 *732:13 0.00139906
5 *732:11 0.00554588
6 *732:5 0.0082782
7 gpio_out[34] gpio_vtrip_sel[34] 0
8 *732:5 *816:5 0
9 *732:13 *816:13 0.00138567
10 *229:13 *732:11 0.00906921
11 *380:17 gpio_out[34] 0
12 *417:15 gpio_out[34] 0.00018712
13 *535:13 gpio_out[34] 0.00149494
14 *562:7 *732:5 0
15 *662:27 *732:13 0.000238637
16 *665:30 *732:13 0.00117557
17 *678:9 *732:11 0
*RES
1 *874:gpio_out[34] *732:5 83.1782 
2 *732:5 *732:11 33.4869 
3 *732:11 *732:13 46.6279 
4 *732:13 *732:15 8 
5 *732:15 gpio_out[34] 47.0111 
*END

*D_NET *733 0.0924396
*CONN
*P gpio_out[35] O
*I *874:gpio_out[35] O *D counter_gpio_config_example
*CAP
1 gpio_out[35] 0.0144319
2 *874:gpio_out[35] 0.00565453
3 *733:13 0.0159118
4 *733:11 0.00147991
5 *733:9 0.00565453
6 *733:9 *734:9 0.0168073
7 *733:9 *735:9 0.0171729
8 *733:9 *779:16 0.00190335
9 *733:9 *816:5 0
10 gpio_analog_sel[35] gpio_out[35] 0
11 gpio_holdover[35] gpio_out[35] 0.00022957
12 *180:9 *733:13 0.00233379
13 *194:9 *733:13 0.00697185
14 *244:9 *733:13 0.00101366
15 *259:29 *733:9 0.00287459
*RES
1 *874:gpio_out[35] *733:9 44.451 
2 *733:9 *733:11 8 
3 *733:11 *733:13 88.885 
4 *733:13 gpio_out[35] 40.4417 
*END

*D_NET *734 0.132459
*CONN
*P gpio_out[36] O
*I *874:gpio_out[36] O *D counter_gpio_config_example
*CAP
1 gpio_out[36] 0.00458713
2 *874:gpio_out[36] 0.000153578
3 *734:13 0.00900664
4 *734:11 0.00441951
5 *734:9 0.0135151
6 *734:7 0.0136686
7 *734:9 *735:9 0.00206076
8 *734:9 *822:6 0
9 *734:9 *823:6 0
10 *734:13 *777:13 0.0210208
11 gpio_analog_sel[36] gpio_out[36] 0
12 gpio_holdover[36] gpio_out[36] 0.000520844
13 *259:27 *734:9 0.00210217
14 *382:24 gpio_out[36] 3.08663e-05
15 *425:17 *734:9 0.000604228
16 *681:7 *734:7 0
17 *691:9 *734:9 0.0193995
18 *731:21 *734:13 0.0245621
19 *733:9 *734:9 0.0168073
*RES
1 *874:gpio_out[36] *734:7 10.8896 
2 *734:7 *734:9 55.7835 
3 *734:9 *734:11 8 
4 *734:11 *734:13 312.848 
5 *734:13 gpio_out[36] 18.4337 
*END

*D_NET *735 0.166955
*CONN
*P gpio_out[37] O
*I *874:gpio_out[37] O *D counter_gpio_config_example
*CAP
1 gpio_out[37] 0.00682354
2 *874:gpio_out[37] 0.000268295
3 *735:13 0.0306409
4 *735:11 0.0238173
5 *735:9 0.0144541
6 *735:7 0.0147224
7 *735:9 *779:16 0.00352962
8 *735:9 *787:9 0.00442342
9 *735:9 *804:9 0.000268671
10 gpio_holdover[37] gpio_out[37] 0.0083614
11 *259:27 *735:9 0.00212448
12 *259:29 *735:9 0.000279091
13 *279:9 *735:13 0
14 *393:9 *735:13 0
15 *425:17 *735:9 0.00120344
16 *562:9 *735:9 0.00103078
17 *568:5 *735:7 0
18 *689:9 *735:9 0.0326284
19 *691:9 *735:9 0.00121582
20 *694:9 *735:9 0.00193001
21 *733:9 *735:9 0.0171729
22 *734:9 *735:9 0.00206076
*RES
1 *874:gpio_out[37] *735:7 12.2982 
2 *735:7 *735:9 70.4667 
3 *735:9 *735:11 8 
4 *735:11 *735:13 540.332 
5 *735:13 gpio_out[37] 28.0713 
*END

*D_NET *736 0.177191
*CONN
*P gpio_out[38] O
*I *874:gpio_out[38] O *D counter_gpio_config_example
*CAP
1 gpio_out[38] 0.00163115
2 *874:gpio_out[38] 6.12498e-05
3 *736:16 0.0126979
4 *736:10 0.0735023
5 *736:8 0.0624968
6 *736:8 *740:16 9.44899e-05
7 *736:10 *784:32 0
8 *736:16 *784:34 0
9 *384:21 gpio_out[38] 0
10 *693:9 *736:16 0
11 *724:13 *736:10 0.0267072
12 *725:13 *736:10 0
*RES
1 *874:gpio_out[38] *736:8 16.1848 
2 *736:8 *736:10 224.347 
3 *736:10 *736:16 48.9 
4 *736:16 gpio_out[38] 33.5261 
*END

*D_NET *737 0.134142
*CONN
*P gpio_out[39] O
*I *874:gpio_out[39] O *D counter_gpio_config_example
*CAP
1 gpio_out[39] 8.95511e-05
2 *874:gpio_out[39] 0.00411419
3 *737:17 0.00392509
4 *737:15 0.00398797
5 *737:13 0.0022744
6 *737:11 0.00212196
7 *737:9 0.0538415
8 *737:7 0.0538415
9 *737:5 0.00411419
10 *737:5 *794:7 0
11 gpio_holdover[39] *737:17 0
12 *385:13 *737:13 0.00583217
13 *385:13 *737:17 0
14 *697:5 *737:5 0
*RES
1 *874:gpio_out[39] *737:5 83.8825 
2 *737:5 *737:7 8 
3 *737:7 *737:9 159.51 
4 *737:9 *737:11 8 
5 *737:11 *737:13 74.6129 
6 *737:13 *737:15 3.48 
7 *737:15 *737:17 85.7571 
8 *737:17 gpio_out[39] 2.16464 
*END

*D_NET *738 0.425999
*CONN
*P gpio_out[3] O
*I *874:gpio_out[3] O *D counter_gpio_config_example
*CAP
1 gpio_out[3] 0.00184188
2 *874:gpio_out[3] 0.00272892
3 *738:25 0.147046
4 *738:23 0.145205
5 *738:21 0.0369442
6 *738:19 0.0369442
7 *738:17 0.00338813
8 *738:15 0.00338813
9 *738:13 0.00272892
10 gpio_out[3] *833:13 0
11 *738:13 *765:11 0
12 *738:13 *771:9 0.00813708
13 *738:17 *771:9 0.00175273
14 *738:17 *782:25 0.00432078
15 gpio_analog_sel[3] *738:25 0
16 gpio_dm2[3] *738:25 5.27422e-05
17 gpio_holdover[3] gpio_out[3] 0.000544571
18 gpio_holdover[3] *738:25 0.00543904
19 *874:gpio_in[40] *738:13 7.45617e-05
20 *103:13 *738:21 0
21 *149:13 *738:21 0
22 *187:11 *738:25 0
23 *238:13 *738:21 0.00159288
24 *342:21 *738:17 0
25 *372:13 *738:21 0
26 *470:15 *738:13 0.00814312
27 *479:15 *738:17 0.0129618
28 *540:11 *738:25 0.00276389
*RES
1 *874:gpio_out[3] *738:13 38.5017 
2 *738:13 *738:15 15 
3 *738:15 *738:17 139.262 
4 *738:17 *738:19 15 
5 *738:19 *738:21 819.053 
6 *738:21 *738:23 8 
7 *738:23 *738:25 432.137 
8 *738:25 gpio_out[3] 23.1873 
*END

*D_NET *739 0.268354
*CONN
*P gpio_out[40] O
*I *874:gpio_out[40] O *D counter_gpio_config_example
*CAP
1 gpio_out[40] 0.00034423
2 *874:gpio_out[40] 0.0108075
3 *739:9 0.0349357
4 *739:7 0.0345915
5 *739:5 0.0108075
6 gpio_out[40] *827:13 0
7 *739:5 *760:11 0
8 *739:9 *828:13 0.10366
9 *123:21 *739:9 0.0142451
10 *212:13 *739:9 0.0111931
11 *300:21 *739:9 0.0127915
12 *340:17 *739:9 0.0240412
13 *344:35 *739:9 0.0109362
14 *387:13 gpio_out[40] 0
*RES
1 *874:gpio_out[40] *739:5 238.825 
2 *739:5 *739:7 8 
3 *739:7 *739:9 199.954 
4 *739:9 gpio_out[40] 14.8046 
*END

*D_NET *740 0.291565
*CONN
*P gpio_out[41] O
*I *874:gpio_out[41] O *D counter_gpio_config_example
*CAP
1 gpio_out[41] 9.55497e-05
2 *874:gpio_out[41] 0.00326828
3 *740:22 0.0579639
4 *740:20 0.0578683
5 *740:18 0.0554266
6 *740:16 0.0586948
7 *740:16 *784:8 9.22365e-05
8 *740:16 *824:8 0.00406124
9 *740:16 *825:8 0.000527988
10 *740:16 *826:10 0.00295701
11 *740:16 *826:14 0.000456557
12 *740:18 *826:14 0.0209915
13 *874:gpio_in[38] *740:18 0.000596371
14 *146:17 *740:18 0
15 *176:13 *740:18 0.0266284
16 *388:25 *740:22 0
17 *410:19 *740:18 0.00119625
18 *703:177 *740:16 0.000645065
19 *705:39 *740:18 0
20 *736:8 *740:16 9.44899e-05
*RES
1 *874:gpio_out[41] *740:16 46.4883 
2 *740:16 *740:18 1286.98 
3 *740:18 *740:20 15 
4 *740:20 *740:22 1276.34 
5 *740:22 gpio_out[41] 2.30964 
*END

*D_NET *741 0.24319
*CONN
*P gpio_out[42] O
*I *874:gpio_out[42] O *D counter_gpio_config_example
*CAP
1 gpio_out[42] 0.00106913
2 *874:gpio_out[42] 0.00469239
3 *741:13 0.00732949
4 *741:11 0.00626035
5 *741:9 0.109456
6 *741:7 0.109456
7 *741:5 0.00469239
8 *741:5 *832:7 0
9 gpio_analog_sel[42] gpio_out[42] 0.000233994
10 *213:21 *741:13 0
11 *258:17 *741:9 0
12 *473:11 *741:9 0
*RES
1 *874:gpio_out[42] *741:5 97.9682 
2 *741:5 *741:7 8 
3 *741:7 *741:9 324.46 
4 *741:9 *741:11 8 
5 *741:11 *741:13 145.228 
6 *741:13 gpio_out[42] 20.3327 
*END

*D_NET *742 0.519179
*CONN
*P gpio_out[43] O
*I *874:gpio_out[43] O *D counter_gpio_config_example
*CAP
1 gpio_out[43] 0.00131794
2 *874:gpio_out[43] 0.000925836
3 *742:13 0.0407626
4 *742:11 0.0394446
5 *742:9 0.103628
6 *742:7 0.104554
7 *742:7 *769:5 0
8 *742:9 *743:17 0
9 *742:9 *783:13 0.111969
10 *742:9 *829:16 0.013315
11 *103:17 *742:9 0.00229695
12 *104:27 *742:9 0.00275706
13 *114:19 *742:9 1.67025e-05
14 *117:17 *742:9 0
15 *190:21 *742:9 0.00731268
16 *214:21 *742:13 0
17 *346:21 *742:13 0
18 *381:17 *742:9 0.00778678
19 *404:19 *742:13 0.0830916
20 *686:5 *742:7 0
*RES
1 *874:gpio_out[43] *742:7 24.2711 
2 *742:7 *742:9 373.061 
3 *742:9 *742:11 8 
4 *742:11 *742:13 1288.28 
5 *742:13 gpio_out[43] 25.5078 
*END

*D_NET *743 0.594275
*CONN
*P gpio_out[4] O
*I *874:gpio_out[4] O *D counter_gpio_config_example
*CAP
1 gpio_out[4] 0.000151517
2 *874:gpio_out[4] 0.000111647
3 *743:17 0.167048
4 *743:15 0.166897
5 *743:13 0.0686774
6 *743:11 0.068789
7 *743:13 *806:13 0
8 *743:17 gpio_vtrip_sel[4] 0.0018622
9 *743:17 *781:17 0.0108841
10 *743:17 *783:13 0.00451642
11 *743:17 *829:16 0.00704849
12 gpio_holdover[4] *743:17 0
13 *142:13 *743:17 0
14 *190:29 *743:17 0.00480584
15 *215:31 *743:17 0.000166435
16 *233:21 *743:17 0.00653171
17 *235:17 *743:17 0.0302939
18 *271:21 *743:17 0.0535734
19 *367:25 *743:17 0.000942056
20 *542:21 *743:17 0.00142464
21 *544:17 *743:17 0.000524764
22 *690:13 *743:11 2.60531e-05
23 *718:7 *743:11 0
24 *742:9 *743:17 0
*RES
1 *874:gpio_out[4] *743:11 17.58 
2 *743:11 *743:13 190.456 
3 *743:13 *743:15 8 
4 *743:15 *743:17 498.997 
5 *743:17 gpio_out[4] 0.581467 
*END

*D_NET *744 0.879607
*CONN
*P gpio_out[5] O
*I *874:gpio_out[5] O *D counter_gpio_config_example
*CAP
1 gpio_out[5] 0.00318319
2 *874:gpio_out[5] 0.00131456
3 *744:13 0.042297
4 *744:11 0.0391138
5 *744:9 0.0631304
6 *744:7 0.064445
7 *744:7 *831:7 0
8 *744:7 *835:11 0
9 *744:9 *756:9 0.000144193
10 *744:9 *831:9 0.262245
11 *744:9 *833:9 0.265276
12 gpio_dm2[5] gpio_out[5] 0
13 gpio_holdover[5] gpio_out[5] 0.000236381
14 *482:11 *744:13 0.10029
15 *711:17 *744:9 0.0375579
16 *714:19 *744:9 0.000373665
*RES
1 *874:gpio_out[5] *744:7 31.3139 
2 *744:7 *744:9 499.285 
3 *744:9 *744:11 8 
4 *744:11 *744:13 1306.59 
5 *744:13 gpio_out[5] 15.2865 
*END

*D_NET *745 0.517505
*CONN
*P gpio_out[6] O
*I *874:gpio_out[6] O *D counter_gpio_config_example
*CAP
1 gpio_out[6] 0.00349683
2 *874:gpio_out[6] 0.0215665
3 *745:9 0.113944
4 *745:7 0.110447
5 *745:5 0.0215665
6 *745:5 *808:5 0
7 *393:13 gpio_out[6] 0.000777103
8 *393:13 *745:9 0.245708
9 *682:5 *745:5 0
*RES
1 *874:gpio_out[6] *745:5 480.395 
2 *745:5 *745:7 8 
3 *745:7 *745:9 463.693 
4 *745:9 gpio_out[6] 8.498 
*END

*D_NET *746 0.472419
*CONN
*P gpio_out[7] O
*I *874:gpio_out[7] O *D counter_gpio_config_example
*CAP
1 gpio_out[7] 0.0118939
2 *874:gpio_out[7] 0.0178895
3 *746:13 0.0549662
4 *746:11 0.0430723
5 *746:9 0.151006
6 *746:7 0.151006
7 *746:5 0.0178895
8 *746:5 *774:5 0
9 gpio_holdover[7] gpio_out[7] 0
10 *138:13 *746:13 0.0159821
11 *394:17 gpio_out[7] 0
12 *438:13 gpio_out[7] 0
13 *447:9 *746:13 0
14 *467:15 *746:9 0.00871399
*RES
1 *874:gpio_out[7] *746:5 397.29 
2 *746:5 *746:7 8 
3 *746:7 *746:9 441.668 
4 *746:9 *746:11 8 
5 *746:11 *746:13 1004.46 
6 *746:13 gpio_out[7] 39.6279 
*END

*D_NET *747 0.692779
*CONN
*P gpio_out[8] O
*I *874:gpio_out[8] O *D counter_gpio_config_example
*CAP
1 gpio_out[8] 0.00185924
2 *874:gpio_out[8] 0.070879
3 *747:9 0.122115
4 *747:7 0.120255
5 *747:5 0.070879
6 *747:5 *769:5 0
7 *747:5 *800:13 0.0245276
8 gpio_dm2[8] gpio_out[8] 5.77181e-06
9 gpio_dm2[8] *747:9 0.00969992
10 gpio_holdover[8] gpio_out[8] 0.000669536
11 *395:13 *747:9 0.271499
12 *542:19 *747:5 0.000389659
13 *694:7 *747:5 0
14 *722:13 *747:5 0
*RES
1 *874:gpio_out[8] *747:5 1631.2 
2 *747:5 *747:7 8 
3 *747:7 *747:9 512.508 
4 *747:9 gpio_out[8] 23.9028 
*END

*D_NET *748 0.536079
*CONN
*P gpio_out[9] O
*I *874:gpio_out[9] O *D counter_gpio_config_example
*CAP
1 gpio_out[9] 0.000104878
2 *874:gpio_out[9] 0.00813836
3 *748:17 0.0191265
4 *748:15 0.0190216
5 *748:13 0.0730903
6 *748:11 0.0730903
7 *748:9 0.148283
8 *748:7 0.148283
9 *748:5 0.00813836
10 *748:5 *772:5 0
11 *748:17 *836:17 0
12 gpio_holdover[9] *748:17 0.0388025
13 *292:17 *748:9 0
*RES
1 *874:gpio_out[9] *748:5 168.397 
2 *748:5 *748:7 8 
3 *748:7 *748:9 430.334 
4 *748:9 *748:11 8 
5 *748:11 *748:13 1698.88 
6 *748:13 *748:15 8 
7 *748:15 *748:17 75.2883 
8 *748:17 gpio_out[9] 0.415333 
*END

*D_NET *749 0.46838
*CONN
*P gpio_slow_sel[0] O
*I *874:gpio_slow_sel[0] O *D counter_gpio_config_example
*CAP
1 gpio_slow_sel[0] 2.38038e-05
2 *874:gpio_slow_sel[0] 0.00647486
3 *749:29 0.147174
4 *749:27 0.14715
5 *749:25 0.0337994
6 *749:23 0.0337994
7 *749:21 0.00187256
8 *749:19 0.00211522
9 *749:13 0.00671751
10 *749:13 *787:9 0.0150681
11 *749:13 *796:5 0
12 *749:13 *804:9 0.00313343
13 *749:21 *793:11 0.00548089
14 *128:17 *749:25 0.00117697
15 *146:17 *749:21 0.000149428
16 *146:27 *749:13 0.00163122
17 *169:13 *749:25 0.0403037
18 *214:13 *749:25 0.000282472
19 *238:27 *749:13 5.10545e-05
20 *239:13 *749:25 0
21 *240:19 *749:13 0.00315893
22 *243:13 *749:25 0.00180385
23 *281:13 *749:25 0
24 *346:13 *749:25 0.00445707
25 *357:21 *749:25 0
26 *419:13 *749:25 0.000705843
27 *425:17 *749:13 0.00438512
28 *441:7 *749:29 0
29 *562:9 *749:13 0.00282647
30 *661:13 *749:13 0.000146682
31 *674:13 *749:25 0
32 *703:177 *749:13 0.000150023
33 *705:29 *749:13 0.00173389
34 *705:39 *749:21 0.00260796
*RES
1 *874:gpio_slow_sel[0] *749:13 45.8409 
2 *749:13 *749:19 25.7861 
3 *749:19 *749:21 60.6514 
4 *749:21 *749:23 15 
5 *749:23 *749:25 966.601 
6 *749:25 *749:27 8 
7 *749:27 *749:29 432.064 
8 *749:29 gpio_slow_sel[0] 0.0942667 
*END

*D_NET *750 0.565311
*CONN
*P gpio_slow_sel[10] O
*I *874:gpio_slow_sel[10] O *D counter_gpio_config_example
*CAP
1 gpio_slow_sel[10] 0.00016465
2 *874:gpio_slow_sel[10] 0.00351295
3 *750:17 0.171008
4 *750:15 0.170843
5 *750:13 0.0646148
6 *750:11 0.0646148
7 *750:9 0.00351295
8 *750:9 *751:11 0
9 *750:9 *797:5 0
10 *750:13 *795:5 0.0533014
11 *750:13 *802:5 0
12 *750:13 *805:21 0.0326486
13 *266:21 *750:17 0
14 *360:13 *750:9 0.000335252
15 *543:17 *750:9 0.000754804
*RES
1 *874:gpio_slow_sel[10] *750:9 49.1991 
2 *750:9 *750:11 8 
3 *750:11 *750:13 2016.52 
4 *750:13 *750:15 8 
5 *750:15 *750:17 492.6 
6 *750:17 gpio_slow_sel[10] 0.631867 
*END

*D_NET *751 0.583901
*CONN
*P gpio_slow_sel[11] O
*I *874:gpio_slow_sel[11] O *D counter_gpio_config_example
*CAP
1 gpio_slow_sel[11] 6.15309e-05
2 *874:gpio_slow_sel[11] 0.00289434
3 *751:17 0.171106
4 *751:15 0.171045
5 *751:13 0.0692518
6 *751:11 0.0721462
7 *751:13 *775:5 0
8 *751:13 *792:13 0.00895032
9 *290:17 *751:11 0.000191664
10 *553:18 *751:11 0.00031633
11 *677:5 *751:11 0
12 *719:5 *751:13 0.0879374
13 *750:9 *751:11 0
*RES
1 *874:gpio_slow_sel[11] *751:11 48.1813 
2 *751:11 *751:13 2258.79 
3 *751:13 *751:15 8 
4 *751:15 *751:17 495.176 
5 *751:17 gpio_slow_sel[11] 0.236133 
*END

*D_NET *752 0.561237
*CONN
*P gpio_slow_sel[12] O
*I *874:gpio_slow_sel[12] O *D counter_gpio_config_example
*CAP
1 gpio_slow_sel[12] 0.000248172
2 *874:gpio_slow_sel[12] 0.0174687
3 *752:17 0.0273134
4 *752:15 0.0270652
5 *752:13 0.0918637
6 *752:11 0.0918637
7 *752:9 0.14017
8 *752:7 0.14017
9 *752:5 0.0174687
10 *752:5 *818:5 0
11 *444:7 *752:17 0
12 *555:17 *752:9 0.00760576
13 *699:7 *752:5 0
*RES
1 *874:gpio_slow_sel[12] *752:5 382.5 
2 *752:5 *752:7 8 
3 *752:7 *752:9 412.817 
4 *752:9 *752:11 8 
5 *752:11 *752:13 2134.13 
6 *752:13 *752:15 8 
7 *752:15 *752:17 76.5763 
8 *752:17 gpio_slow_sel[12] 0.9828 
*END

*D_NET *753 0.769478
*CONN
*P gpio_slow_sel[13] O
*I *874:gpio_slow_sel[13] O *D counter_gpio_config_example
*CAP
1 gpio_slow_sel[13] 0.000116191
2 *874:gpio_slow_sel[13] 0.00022178
3 *753:25 0.0237087
4 *753:23 0.0235926
5 *753:21 0.100305
6 *753:19 0.100305
7 *753:17 0.151166
8 *753:15 0.151166
9 *753:13 0.107843
10 *753:11 0.108064
11 *753:17 *754:17 0
12 gpio_dm0[22] *753:13 0.0028057
13 *269:17 *753:25 0
14 *445:5 *753:25 0
15 *445:7 *753:25 0
16 *678:5 *753:13 0.000116093
17 *690:13 *753:11 6.76126e-05
18 *695:10 *753:13 0
19 *697:5 *753:11 0
20 *729:13 *753:13 0
21 *731:7 *753:11 0
*RES
1 *874:gpio_slow_sel[13] *753:11 17.7517 
2 *753:11 *753:13 303.427 
3 *753:13 *753:15 8 
4 *753:15 *753:17 436.731 
5 *753:17 *753:19 8 
6 *753:19 *753:21 2334.15 
7 *753:21 *753:23 8 
8 *753:23 *753:25 66.2723 
9 *753:25 gpio_slow_sel[13] 0.460133 
*END

*D_NET *754 0.797983
*CONN
*P gpio_slow_sel[14] O
*I *874:gpio_slow_sel[14] O *D counter_gpio_config_example
*CAP
1 gpio_slow_sel[14] 1.67811e-05
2 *874:gpio_slow_sel[14] 0.000104028
3 *754:25 0.115276
4 *754:23 0.115259
5 *754:21 0.120432
6 *754:19 0.120432
7 *754:17 0.0527644
8 *754:15 0.0527644
9 *754:13 0.0759925
10 *754:11 0.0760965
11 *754:11 *801:11 0
12 *754:11 *810:11 0
13 *754:13 *791:13 0.00457424
14 *754:13 *801:13 0.0126973
15 *754:13 *810:13 0.0430662
16 *270:17 *754:25 0
17 *466:7 *754:17 0.000677648
18 *676:5 *754:13 0.00780552
19 *683:9 *754:11 2.60531e-05
20 *753:17 *754:17 0
*RES
1 *874:gpio_slow_sel[14] *754:11 17.58 
2 *754:11 *754:13 302.157 
3 *754:13 *754:15 8 
4 *754:15 *754:17 149.679 
5 *754:17 *754:19 8 
6 *754:19 *754:21 2805.31 
7 *754:21 *754:23 8 
8 *754:23 *754:25 335.464 
9 *754:25 gpio_slow_sel[14] 0.0644 
*END

*D_NET *755 0.875502
*CONN
*P gpio_slow_sel[15] O
*I *874:gpio_slow_sel[15] O *D counter_gpio_config_example
*CAP
1 gpio_slow_sel[15] 7.90936e-05
2 *874:gpio_slow_sel[15] 0.000127935
3 *755:21 0.0109919
4 *755:19 0.0109128
5 *755:17 0.162569
6 *755:15 0.162569
7 *755:13 0.216794
8 *755:11 0.216922
9 *755:11 *807:11 0
10 *755:11 *817:11 0
11 *755:13 *807:13 0.0343193
12 *755:13 *817:13 0.0178739
13 *755:13 *817:19 0.005798
14 *755:13 *817:21 0.0365179
15 *690:13 *755:11 2.60531e-05
*RES
1 *874:gpio_slow_sel[15] *755:11 17.58 
2 *755:11 *755:13 801.894 
3 *755:13 *755:15 8 
4 *755:15 *755:17 475.371 
5 *755:17 *755:19 8 
6 *755:19 *755:21 243.828 
7 *755:21 gpio_slow_sel[15] 1.86429 
*END

*D_NET *756 0.884865
*CONN
*P gpio_slow_sel[16] O
*I *874:gpio_slow_sel[16] O *D counter_gpio_config_example
*CAP
1 gpio_slow_sel[16] 0.203557
2 *874:gpio_slow_sel[16] 0.00134757
3 *756:11 0.203557
4 *756:9 0.0589216
5 *756:7 0.0602691
6 *756:7 *777:7 0
7 *756:9 *831:9 0.200142
8 *756:9 *833:9 0.000240519
9 *389:13 *756:9 0.0513926
10 *711:17 *756:9 0.0355474
11 *714:19 *756:9 0.000281054
12 *715:9 *756:9 0.0694657
13 *744:9 *756:9 0.000144193
*RES
1 *874:gpio_slow_sel[16] *756:7 32.7225 
2 *756:7 *756:9 378.556 
3 *756:9 *756:11 8 
4 *756:11 gpio_slow_sel[16] 4717.38 
*END

*D_NET *757 0.589573
*CONN
*P gpio_slow_sel[17] O
*I *874:gpio_slow_sel[17] O *D counter_gpio_config_example
*CAP
1 gpio_slow_sel[17] 0.0148827
2 *874:gpio_slow_sel[17] 0.14404
3 *757:11 0.0148827
4 *757:9 0.105713
5 *757:7 0.105713
6 *757:5 0.14404
7 *757:5 *810:13 0.0264509
8 *757:9 *758:9 0
9 *673:13 *757:5 0.0338497
10 *676:5 *757:5 0
11 *687:13 *757:5 0
12 *705:29 *757:5 0
*RES
1 *874:gpio_slow_sel[17] *757:5 3327.12 
2 *757:5 *757:7 8 
3 *757:7 *757:9 308.918 
4 *757:9 *757:11 8 
5 *757:11 gpio_slow_sel[17] 331.087 
*END

*D_NET *758 0.496617
*CONN
*P gpio_slow_sel[18] O
*I *874:gpio_slow_sel[18] O *D counter_gpio_config_example
*CAP
1 gpio_slow_sel[18] 0.0146411
2 *874:gpio_slow_sel[18] 0.143528
3 *758:11 0.0146411
4 *758:9 0.0901393
5 *758:7 0.0901393
6 *758:5 0.143528
7 *758:5 *773:13 0
8 *758:5 *781:13 0
9 *679:5 *758:5 0
10 *757:9 *758:9 0
*RES
1 *874:gpio_slow_sel[18] *758:5 3320.08 
2 *758:5 *758:7 8 
3 *758:7 *758:9 261.949 
4 *758:9 *758:11 8 
5 *758:11 gpio_slow_sel[18] 338.13 
*END

*D_NET *759 0.41714
*CONN
*P gpio_slow_sel[19] O
*I *874:gpio_slow_sel[19] O *D counter_gpio_config_example
*CAP
1 gpio_slow_sel[19] 0.0095326
2 *874:gpio_slow_sel[19] 0.154621
3 *759:11 0.0095326
4 *759:9 0.0444163
5 *759:7 0.0444163
6 *759:5 0.154621
7 *270:17 *759:9 0
8 *680:5 *759:5 0
*RES
1 *874:gpio_slow_sel[19] *759:5 3448.26 
2 *759:5 *759:7 8 
3 *759:7 *759:9 128.427 
4 *759:9 *759:11 8 
5 *759:11 gpio_slow_sel[19] 209.95 
*END

*D_NET *760 0.430211
*CONN
*P gpio_slow_sel[1] O
*I *874:gpio_slow_sel[1] O *D counter_gpio_config_example
*CAP
1 gpio_slow_sel[1] 0.000234693
2 *874:gpio_slow_sel[1] 0.00119628
3 *760:21 0.151736
4 *760:19 0.151501
5 *760:17 0.0045144
6 *760:15 0.0045144
7 *760:13 0.00786951
8 *760:11 0.00906579
9 *760:11 *782:15 0.00260106
10 *760:13 *771:9 0.0244316
11 *760:13 *782:15 7.92612e-05
12 *760:13 *782:17 0.00369559
13 *760:13 *815:15 0.0215507
14 *874:gpio_in[2] *760:13 4.1352e-05
15 *343:13 *760:17 0.0238464
16 *452:7 *760:21 0
17 *452:11 *760:17 0.0119601
18 *683:9 *760:13 0.000110558
19 *690:11 *760:11 0.00249392
20 *727:19 *760:11 3.80633e-05
21 *727:19 *760:13 0.00292094
22 *727:21 *760:13 0.00580894
23 *739:5 *760:11 0
*RES
1 *874:gpio_slow_sel[1] *760:11 18.2646 
2 *760:11 *760:13 47.8408 
3 *760:13 *760:15 8 
4 *760:15 *760:17 303.692 
5 *760:17 *760:19 8 
6 *760:19 *760:21 440.737 
7 *760:21 gpio_slow_sel[1] 0.900667 
*END

*D_NET *761 0.55966
*CONN
*P gpio_slow_sel[20] O
*I *874:gpio_slow_sel[20] O *D counter_gpio_config_example
*CAP
1 gpio_slow_sel[20] 8.98303e-05
2 *874:gpio_slow_sel[20] 0.000161776
3 *761:21 0.123187
4 *761:19 0.123097
5 *761:17 0.0407095
6 *761:15 0.0407095
7 *761:13 0.0821404
8 *761:11 0.0823022
9 *761:11 *762:11 0
10 *761:11 *800:11 0
11 *761:13 *762:13 0.0138667
12 *761:13 *800:13 0.0470076
13 *442:11 *761:21 0
14 *690:13 *761:11 4.86653e-05
15 *722:13 *761:13 0.00633924
*RES
1 *874:gpio_slow_sel[20] *761:11 17.6659 
2 *761:11 *761:13 329.194 
3 *761:13 *761:15 8 
4 *761:15 *761:17 113.786 
5 *761:17 *761:19 8 
6 *761:19 *761:21 2866.59 
7 *761:21 gpio_slow_sel[20] 1.86429 
*END

*D_NET *762 0.708184
*CONN
*P gpio_slow_sel[21] O
*I *874:gpio_slow_sel[21] O *D counter_gpio_config_example
*CAP
1 gpio_slow_sel[21] 9.04367e-05
2 *874:gpio_slow_sel[21] 0.000126578
3 *762:21 0.00539188
4 *762:19 0.00530145
5 *762:17 0.0228935
6 *762:15 0.0228935
7 *762:13 0.265417
8 *762:11 0.265543
9 *762:13 *800:13 0
10 *122:177 *762:13 0.000831233
11 *368:61 *762:17 0
12 *690:13 *762:11 2.60531e-05
13 *709:5 *762:13 0.0910107
14 *722:13 *762:13 0.0147917
15 *761:11 *762:11 0
16 *761:13 *762:13 0.0138667
*RES
1 *874:gpio_slow_sel[21] *762:11 17.58 
2 *762:11 *762:13 824.996 
3 *762:13 *762:15 8 
4 *762:15 *762:17 66.5597 
5 *762:17 *762:19 8 
6 *762:19 *762:21 115.648 
7 *762:21 gpio_slow_sel[21] 1.86429 
*END

*D_NET *763 0.341083
*CONN
*P gpio_slow_sel[22] O
*I *874:gpio_slow_sel[22] O *D counter_gpio_config_example
*CAP
1 gpio_slow_sel[22] 0.150769
2 *874:gpio_slow_sel[22] 0.00613776
3 *763:11 0.15585
4 *763:5 0.0112188
5 *763:5 *770:5 0
6 *763:5 *781:13 0
7 *763:11 *803:9 0.0073725
8 *763:11 *814:19 0.00195381
9 *535:13 *763:11 0
10 *677:5 gpio_slow_sel[22] 0.00778026
11 *709:5 *763:5 0
*RES
1 *874:gpio_slow_sel[22] *763:5 126.14 
2 *763:5 *763:11 35.2043 
3 *763:11 gpio_slow_sel[22] 3532.07 
*END

*D_NET *764 0.341324
*CONN
*P gpio_slow_sel[23] O
*I *874:gpio_slow_sel[23] O *D counter_gpio_config_example
*CAP
1 gpio_slow_sel[23] 0.00229431
2 *874:gpio_slow_sel[23] 0.0714226
3 *764:13 0.0870689
4 *764:11 0.0847746
5 *764:9 0.0121708
6 *764:5 0.0835934
7 *439:13 *764:9 0
8 *684:5 *764:5 0
9 *716:17 *764:5 0
*RES
1 *874:gpio_slow_sel[23] *764:5 1640.35 
2 *764:5 *764:9 42.9179 
3 *764:9 *764:11 8 
4 *764:11 *764:13 1969.39 
5 *764:13 gpio_slow_sel[23] 49.8489 
*END

*D_NET *765 0.66624
*CONN
*P gpio_slow_sel[24] O
*I *874:gpio_slow_sel[24] O *D counter_gpio_config_example
*CAP
1 gpio_slow_sel[24] 0.00432423
2 *874:gpio_slow_sel[24] 0.000132989
3 *765:21 0.0428884
4 *765:19 0.0385642
5 *765:17 0.0370116
6 *765:15 0.0370116
7 *765:13 0.162792
8 *765:11 0.162925
9 *765:13 *766:5 0.0265517
10 *765:13 *784:12 0.00949431
11 *765:13 *784:14 0.0320727
12 *765:13 *784:24 0.0152883
13 *765:13 *784:28 0.00572885
14 *281:25 gpio_slow_sel[24] 0
15 *457:9 gpio_slow_sel[24] 0
16 *457:11 *765:21 0.0461492
17 *466:11 *765:13 0.00744707
18 *547:9 *765:21 0.0134579
19 *683:9 *765:11 4.86653e-05
20 *719:11 *765:17 0
21 *724:11 *765:11 0
22 *724:13 *765:13 0.0243514
23 *738:13 *765:11 0
*RES
1 *874:gpio_slow_sel[24] *765:11 17.6659 
2 *765:11 *765:13 584.203 
3 *765:13 *765:15 8 
4 *765:15 *765:17 104.169 
5 *765:17 *765:19 8 
6 *765:19 *765:21 1305.89 
7 *765:21 gpio_slow_sel[24] 18.2601 
*END

*D_NET *766 0.344247
*CONN
*P gpio_slow_sel[25] O
*I *874:gpio_slow_sel[25] O *D counter_gpio_config_example
*CAP
1 gpio_slow_sel[25] 0.00314128
2 *874:gpio_slow_sel[25] 0.107478
3 *766:9 0.0409234
4 *766:7 0.0377821
5 *766:5 0.107478
6 *282:33 *766:9 0
7 *458:9 gpio_slow_sel[25] 0
8 *466:11 *766:5 0.0208913
9 *723:5 *766:5 0
10 *765:13 *766:5 0.0265517
*RES
1 *874:gpio_slow_sel[25] *766:5 2630.58 
2 *766:5 *766:7 8 
3 *766:7 *766:9 107.432 
4 *766:9 gpio_slow_sel[25] 7.11107 
*END

*D_NET *767 0.328209
*CONN
*P gpio_slow_sel[26] O
*I *874:gpio_slow_sel[26] O *D counter_gpio_config_example
*CAP
1 gpio_slow_sel[26] 3.23463e-05
2 *874:gpio_slow_sel[26] 0.079413
3 *767:17 0.0376241
4 *767:15 0.0375918
5 *767:13 0.0252787
6 *767:11 0.028152
7 *767:5 0.0822863
8 *767:5 *836:13 0.0248619
9 *459:9 *767:17 0
10 *672:7 *767:5 0
11 *706:13 *767:13 0.00855748
12 *725:13 *767:5 0.00441103
*RES
1 *874:gpio_slow_sel[26] *767:5 1826.29 
2 *767:5 *767:11 24.3851 
3 *767:11 *767:13 583.294 
4 *767:13 *767:15 8 
5 *767:15 *767:17 103.712 
6 *767:17 gpio_slow_sel[26] 0.124133 
*END

*D_NET *768 0.286015
*CONN
*P gpio_slow_sel[27] O
*I *874:gpio_slow_sel[27] O *D counter_gpio_config_example
*CAP
1 gpio_slow_sel[27] 0.00441987
2 *874:gpio_slow_sel[27] 0.0904342
3 *768:13 0.00735723
4 *768:11 0.00293736
5 *768:9 0.026472
6 *768:7 0.026472
7 *768:5 0.0904342
8 *768:5 *791:5 0
9 *768:5 *807:13 0.0306891
10 gpio_holdover[22] *768:5 0
11 *178:21 *768:9 0
12 *547:9 *768:13 0.0011629
13 *548:9 *768:13 0.0056367
14 *685:5 *768:5 0
*RES
1 *874:gpio_slow_sel[27] *768:5 2083.35 
2 *768:5 *768:7 8 
3 *768:7 *768:9 73.3003 
4 *768:9 *768:11 8 
5 *768:11 *768:13 100.858 
6 *768:13 gpio_slow_sel[27] 18.3684 
*END

*D_NET *769 0.246746
*CONN
*P gpio_slow_sel[28] O
*I *874:gpio_slow_sel[28] O *D counter_gpio_config_example
*CAP
1 gpio_slow_sel[28] 0.0031927
2 *874:gpio_slow_sel[28] 0.0851539
3 *769:9 0.0283148
4 *769:7 0.0251221
5 *769:5 0.0851539
6 *769:5 *798:13 0.00633268
7 *769:5 *800:13 0.0134759
8 *461:9 gpio_slow_sel[28] 0
9 *461:9 *769:9 0
10 *542:19 *769:5 0
11 *742:7 *769:5 0
12 *747:5 *769:5 0
*RES
1 *874:gpio_slow_sel[28] *769:5 1959.4 
2 *769:5 *769:7 8 
3 *769:7 *769:9 68.964 
4 *769:9 gpio_slow_sel[28] 7.11853 
*END

*D_NET *770 0.251316
*CONN
*P gpio_slow_sel[29] O
*I *874:gpio_slow_sel[29] O *D counter_gpio_config_example
*CAP
1 gpio_slow_sel[29] 6.73678e-05
2 *874:gpio_slow_sel[29] 0.00308106
3 *770:17 0.0230235
4 *770:15 0.0229562
5 *770:13 0.072373
6 *770:11 0.0754249
7 *770:5 0.00613302
8 *770:5 *781:13 0.000272402
9 *770:5 *783:11 0
10 *233:19 *770:5 9.52471e-05
11 *406:13 *770:11 0.00660442
12 *537:13 *770:11 0
13 *545:26 *770:13 0.0412845
14 *763:5 *770:5 0
*RES
1 *874:gpio_slow_sel[29] *770:5 62.7539 
2 *770:5 *770:11 28.5067 
3 *770:11 *770:13 1674.94 
4 *770:13 *770:15 8 
5 *770:15 *770:17 59.92 
6 *770:17 gpio_slow_sel[29] 0.258533 
*END

*D_NET *771 0.459532
*CONN
*P gpio_slow_sel[2] O
*I *874:gpio_slow_sel[2] O *D counter_gpio_config_example
*CAP
1 gpio_slow_sel[2] 9.54508e-05
2 *874:gpio_slow_sel[2] 0.000268129
3 *771:21 0.146747
4 *771:19 0.149639
5 *771:13 0.0123931
6 *771:11 0.00940525
7 *771:9 0.00816146
8 *771:7 0.00842959
9 *771:7 *782:15 0.000100169
10 *771:9 *782:15 7.00408e-05
11 *874:gpio_in[2] *771:9 0.00701344
12 *874:gpio_in[3] *771:9 0.000632457
13 *287:17 *771:21 0
14 *343:13 *771:13 0.030142
15 *345:9 *771:21 0
16 *355:9 *771:19 0
17 *355:9 *771:21 0
18 *370:11 *771:19 6.76643e-05
19 *400:11 *771:19 0
20 *400:11 *771:21 0.00123735
21 *470:15 *771:9 0.00343136
22 *479:15 *771:9 0.00151516
23 *533:11 *771:19 0.00321051
24 *546:13 *771:13 0
25 *549:13 *771:13 0
26 *670:9 *771:9 0.000425837
27 *683:7 *771:7 0
28 *690:11 *771:7 0
29 *727:25 *771:13 0.042226
30 *738:13 *771:9 0.00813708
31 *738:17 *771:9 0.00175273
32 *760:13 *771:9 0.0244316
*RES
1 *874:gpio_slow_sel[2] *771:7 13.0025 
2 *771:7 *771:9 47.2827 
3 *771:9 *771:11 8 
4 *771:11 *771:13 541.036 
5 *771:13 *771:19 17.7272 
6 *771:19 *771:21 431.42 
7 *771:21 gpio_slow_sel[2] 0.378 
*END

*D_NET *772 0.224542
*CONN
*P gpio_slow_sel[30] O
*I *874:gpio_slow_sel[30] O *D counter_gpio_config_example
*CAP
1 gpio_slow_sel[30] 0.00352513
2 *874:gpio_slow_sel[30] 0.0035344
3 *772:17 0.0297096
4 *772:15 0.0261845
5 *772:13 0.0546772
6 *772:11 0.0574165
7 *772:5 0.00627371
8 *772:5 *811:5 0
9 *772:13 *814:13 0.000358454
10 gpio_dm1[30] *772:17 0
11 *407:13 *772:11 0
12 *537:13 *772:11 0.00487386
13 *686:5 *772:13 0.037989
14 *748:5 *772:5 0
*RES
1 *874:gpio_slow_sel[30] *772:5 69.0925 
2 *772:5 *772:11 25.5872 
3 *772:11 *772:13 1439.7 
4 *772:13 *772:15 8 
5 *772:15 *772:17 70.252 
6 *772:17 gpio_slow_sel[30] 7.71587 
*END

*D_NET *773 0.192193
*CONN
*P gpio_slow_sel[31] O
*I *874:gpio_slow_sel[31] O *D counter_gpio_config_example
*CAP
1 gpio_slow_sel[31] 0.00329489
2 *874:gpio_slow_sel[31] 0.00672318
3 *773:17 0.0268835
4 *773:15 0.0235886
5 *773:13 0.0344737
6 *773:11 0.0384541
7 *773:5 0.0107036
8 gpio_dm1[31] *773:17 0
9 gpio_ib_mode_sel[22] *773:5 0
10 *139:13 *773:11 0
11 *380:17 *773:11 0.0014808
12 *465:7 gpio_slow_sel[31] 0
13 *465:7 *773:17 0
14 *679:5 *773:13 0.046591
15 *708:5 *773:5 0
16 *758:5 *773:13 0
*RES
1 *874:gpio_slow_sel[31] *773:5 139.521 
2 *773:5 *773:11 27.9056 
3 *773:11 *773:13 1148.13 
4 *773:13 *773:15 8 
5 *773:15 *773:17 62.524 
6 *773:17 gpio_slow_sel[31] 7.25293 
*END

*D_NET *774 0.146707
*CONN
*P gpio_slow_sel[32] O
*I *874:gpio_slow_sel[32] O *D counter_gpio_config_example
*CAP
1 gpio_slow_sel[32] 4.9857e-05
2 *874:gpio_slow_sel[32] 0.0280594
3 *774:9 0.045294
4 *774:7 0.0452441
5 *774:5 0.0280594
6 *774:5 *796:13 0
7 *466:7 *774:9 0
8 *682:5 *774:5 0
9 *746:5 *774:5 0
*RES
1 *874:gpio_slow_sel[32] *774:5 629.704 
2 *774:5 *774:7 8 
3 *774:7 *774:9 118.653 
4 *774:9 gpio_slow_sel[32] 0.191333 
*END

*D_NET *775 0.114135
*CONN
*P gpio_slow_sel[33] O
*I *874:gpio_slow_sel[33] O *D counter_gpio_config_example
*CAP
1 gpio_slow_sel[33] 0.00314567
2 *874:gpio_slow_sel[33] 0.0174823
3 *775:19 0.0100619
4 *775:9 0.0344313
5 *775:7 0.0275151
6 *775:5 0.0174823
7 *775:5 *792:13 0.00136738
8 *775:5 *809:13 0
9 gpio_dm0[33] *775:9 0.000173366
10 gpio_dm1[33] *775:19 0
11 *115:17 *775:9 0.000816341
12 *272:9 *775:19 0.00094824
13 *467:15 *775:19 0.000711549
14 *719:5 *775:5 0
15 *751:13 *775:5 0
*RES
1 *874:gpio_slow_sel[33] *775:5 389.543 
2 *775:5 *775:7 8 
3 *775:7 *775:9 74.5024 
4 *775:9 *775:19 44.3635 
5 *775:19 gpio_slow_sel[33] 6.83107 
*END

*D_NET *776 0.0741204
*CONN
*P gpio_slow_sel[34] O
*I *874:gpio_slow_sel[34] O *D counter_gpio_config_example
*CAP
1 gpio_slow_sel[34] 0.00330368
2 *874:gpio_slow_sel[34] 0.00724964
3 *776:9 0.0271349
4 *776:7 0.0238312
5 *776:5 0.00724964
6 *776:5 *789:5 0
7 *292:17 *776:9 0
8 *468:7 gpio_slow_sel[34] 0
9 *468:7 *776:9 0
10 *468:15 *776:9 5.83807e-05
11 *667:5 *776:5 0
12 *721:13 *776:5 0.00529296
*RES
1 *874:gpio_slow_sel[34] *776:5 179.665 
2 *776:5 *776:7 8 
3 *776:7 *776:9 61.1501 
4 *776:9 gpio_slow_sel[34] 7.18573 
*END

*D_NET *777 0.214496
*CONN
*P gpio_slow_sel[35] O
*I *874:gpio_slow_sel[35] O *D counter_gpio_config_example
*CAP
1 gpio_slow_sel[35] 0.00479533
2 *874:gpio_slow_sel[35] 0.00025437
3 *777:13 0.0247231
4 *777:11 0.0199277
5 *777:9 0.0124544
6 *777:7 0.0127088
7 *777:7 *807:11 0
8 *777:9 *820:9 0.0357045
9 *458:11 *777:13 0
10 *470:15 *777:9 0.000453448
11 *662:25 *777:9 0.000641947
12 *690:13 *777:9 0.0131522
13 *690:17 *777:13 0.028727
14 *726:19 *777:9 0.000228308
15 *731:17 *777:9 0.0101242
16 *731:21 *777:13 0.0295796
17 *734:13 *777:13 0.0210208
18 *756:7 *777:7 0
*RES
1 *874:gpio_slow_sel[35] *777:7 12.2982 
2 *777:7 *777:9 73.1285 
3 *777:9 *777:11 8 
4 *777:11 *777:13 996.709 
5 *777:13 gpio_slow_sel[35] 18.4431 
*END

*D_NET *778 0.182502
*CONN
*P gpio_slow_sel[36] O
*I *874:gpio_slow_sel[36] O *D counter_gpio_config_example
*CAP
1 gpio_slow_sel[36] 0.0144668
2 *874:gpio_slow_sel[36] 0.000353302
3 *778:13 0.0350849
4 *778:11 0.0262658
5 *778:7 0.00600103
6 *778:7 *786:5 0
7 *778:11 *820:9 0.0200693
8 gpio_dm1[36] gpio_slow_sel[36] 0.000654197
9 *93:9 *778:13 0.00117946
10 *99:9 *778:13 0
11 *105:9 *778:13 0.00500238
12 *122:17 *778:13 0.0256787
13 *125:9 *778:13 0
14 *133:9 *778:13 0.00129581
15 *194:9 *778:13 0.0049857
16 *244:9 *778:13 0.0021884
17 *369:9 *778:13 0.0182482
18 *424:33 gpio_slow_sel[36] 4.53073e-05
19 *426:9 *778:13 0.000907533
20 *431:9 *778:13 0
21 *469:21 *778:13 0
22 *470:15 *778:11 0.0200755
23 *693:5 *778:7 0
*RES
1 *874:gpio_slow_sel[36] *778:7 13.7068 
2 *778:7 *778:11 46.8677 
3 *778:11 *778:13 769.929 
4 *778:13 gpio_slow_sel[36] 40.9999 
*END

*D_NET *779 0.262154
*CONN
*P gpio_slow_sel[37] O
*I *874:gpio_slow_sel[37] O *D counter_gpio_config_example
*CAP
1 gpio_slow_sel[37] 0.00970809
2 *874:gpio_slow_sel[37] 0.051097
3 *779:18 0.0248662
4 *779:16 0.0662551
5 *779:16 *787:9 0.000555988
6 *779:16 *824:8 0.000349381
7 *779:16 *829:16 0.00329412
8 *91:9 *779:18 0.0317399
9 *91:17 *779:18 0.000878898
10 *105:17 *779:18 0.00224766
11 *115:9 *779:18 0.0189451
12 *123:9 *779:18 0.000282337
13 *157:7 gpio_slow_sel[37] 0
14 *189:9 *779:18 0.00494133
15 *215:31 *779:16 0.0100011
16 *283:9 *779:18 0.00077249
17 *402:9 *779:18 0.00625171
18 *425:17 *779:16 0.00391354
19 *440:7 gpio_slow_sel[37] 0.000720461
20 *471:9 gpio_slow_sel[37] 0.0153457
21 *661:13 *779:16 0.000406242
22 *689:9 *779:16 0.00368196
23 *705:29 *779:16 0.000466553
24 *733:9 *779:16 0.00190335
25 *735:9 *779:16 0.00352962
*RES
1 *874:gpio_slow_sel[37] *779:16 29.9401 
2 *779:16 *779:18 88.5285 
3 *779:18 gpio_slow_sel[37] 39.0847 
*END

*D_NET *780 0.0545678
*CONN
*P gpio_slow_sel[38] O
*I *874:gpio_slow_sel[38] O *D counter_gpio_config_example
*CAP
1 gpio_slow_sel[38] 0.00229055
2 *874:gpio_slow_sel[38] 0.0111141
3 *780:5 0.0134046
4 *212:13 gpio_slow_sel[38] 0.0138793
5 *296:13 gpio_slow_sel[38] 0.0138793
6 *472:7 gpio_slow_sel[38] 0
7 *670:7 *780:5 0
8 *702:7 *780:5 0
*RES
1 *874:gpio_slow_sel[38] *780:5 241.643 
2 *780:5 gpio_slow_sel[38] 46.582 
*END

*D_NET *781 0.32439
*CONN
*P gpio_slow_sel[39] O
*I *874:gpio_slow_sel[39] O *D counter_gpio_config_example
*CAP
1 gpio_slow_sel[39] 6.98413e-05
2 *874:gpio_slow_sel[39] 0.00236855
3 *781:21 0.0573996
4 *781:19 0.0573298
5 *781:17 0.0284967
6 *781:15 0.0284967
7 *781:13 0.00236855
8 *781:17 *783:13 0.0870911
9 *781:17 *829:16 0.00154994
10 *104:27 *781:17 0.0025662
11 *142:13 *781:13 0
12 *323:13 *781:13 0.00127252
13 *544:17 *781:17 0.0442241
14 *704:5 *781:13 0
15 *743:17 *781:17 0.0108841
16 *758:5 *781:13 0
17 *763:5 *781:13 0
18 *770:5 *781:13 0.000272402
*RES
1 *874:gpio_slow_sel[39] *781:13 43.4136 
2 *781:13 *781:15 8 
3 *781:15 *781:17 165.95 
4 *781:17 *781:19 8 
5 *781:19 *781:21 1296.24 
6 *781:21 gpio_slow_sel[39] 1.68821 
*END

*D_NET *782 0.478585
*CONN
*P gpio_slow_sel[3] O
*I *874:gpio_slow_sel[3] O *D counter_gpio_config_example
*CAP
1 gpio_slow_sel[3] 0.146896
2 *874:gpio_slow_sel[3] 0.00142034
3 *782:36 0
4 *782:31 0.146896
5 *782:29 0.0237972
6 *782:27 0.0237972
7 *782:25 0.00136557
8 *782:23 0.00150088
9 *782:17 0.00362637
10 *782:15 0.0049114
11 *874:gpio_in[2] *782:25 0.000598599
12 *128:15 gpio_slow_sel[3] 0.00137701
13 *146:13 *782:29 0
14 *298:22 gpio_slow_sel[3] 0
15 *315:9 gpio_slow_sel[3] 0
16 *341:9 gpio_slow_sel[3] 0.00806803
17 *342:21 *782:25 0
18 *357:17 gpio_slow_sel[3] 0.000659997
19 *470:15 *782:15 0.0031581
20 *474:11 *782:29 0.0589506
21 *567:15 *782:17 0.0213228
22 *672:13 *782:29 0.000524768
23 *690:11 *782:15 0.00015512
24 *698:5 *782:15 0
25 *727:21 *782:17 0.0186924
26 *738:17 *782:25 0.00432078
27 *760:11 *782:15 0.00260106
28 *760:13 *782:15 7.92612e-05
29 *760:13 *782:17 0.00369559
30 *771:7 *782:15 0.000100169
31 *771:9 *782:15 7.00408e-05
*RES
1 *874:gpio_slow_sel[3] *782:15 44.9411 
2 *782:15 *782:17 228.831 
3 *782:17 *782:23 31.5536 
4 *782:23 *782:25 46.3586 
5 *782:25 *782:27 15 
6 *782:27 *782:29 776.444 
7 *782:29 *782:31 8 
8 *782:31 gpio_slow_sel[3] 438.504 
9 gpio_slow_sel[3] *782:36 0.0746667 
*END

*D_NET *783 0.399836
*CONN
*P gpio_slow_sel[40] O
*I *874:gpio_slow_sel[40] O *D counter_gpio_config_example
*CAP
1 gpio_slow_sel[40] 0.000279794
2 *874:gpio_slow_sel[40] 0.00121928
3 *783:17 0.059453
4 *783:15 0.0591732
5 *783:13 0.0337776
6 *783:11 0.0349969
7 *783:13 *829:16 0.00321523
8 *104:27 *783:13 0.00173836
9 *190:21 *783:13 0.000303193
10 *212:13 gpio_slow_sel[40] 0.000208859
11 *233:13 *783:11 0.000199606
12 *542:13 *783:11 1.74643e-05
13 *542:13 *783:13 0.00138262
14 *544:17 *783:11 0.000260071
15 *544:17 *783:13 3.40858e-05
16 *668:5 *783:11 0
17 *742:9 *783:13 0.111969
18 *743:17 *783:13 0.00451642
19 *770:5 *783:11 0
20 *781:17 *783:13 0.0870911
*RES
1 *874:gpio_slow_sel[40] *783:11 26.3908 
2 *783:11 *783:13 216.397 
3 *783:13 *783:15 8 
4 *783:15 *783:17 1295.53 
5 *783:17 gpio_slow_sel[40] 6.76321 
*END

*D_NET *784 0.3556
*CONN
*P gpio_slow_sel[41] O
*I *874:gpio_slow_sel[41] O *D counter_gpio_config_example
*CAP
1 gpio_slow_sel[41] 0.00190283
2 *874:gpio_slow_sel[41] 7.45111e-05
3 *784:34 0.0779775
4 *784:32 0.089176
5 *784:28 0.017406
6 *784:24 0.0110045
7 *784:14 0.0196816
8 *784:12 0.0192484
9 *784:8 0.00634108
10 *784:34 *830:9 0
11 *703:35 *784:24 5.63641e-05
12 *703:35 *784:28 0.0105949
13 *703:63 *784:24 0.00599892
14 *703:91 *784:14 0.00582781
15 *703:91 *784:24 0.00141349
16 *703:131 *784:14 0.00859807
17 *703:167 *784:12 0.0176211
18 *736:10 *784:32 0
19 *736:16 *784:34 0
20 *740:16 *784:8 9.22365e-05
21 *765:13 *784:12 0.00949431
22 *765:13 *784:14 0.0320727
23 *765:13 *784:24 0.0152883
24 *765:13 *784:28 0.00572885
*RES
1 *874:gpio_slow_sel[41] *784:8 16.1848 
2 *784:8 *784:12 43.5904 
3 *784:12 *784:14 78.624 
4 *784:14 *784:24 39.7787 
5 *784:24 *784:28 27.3317 
6 *784:28 *784:32 43.5152 
7 *784:32 *784:34 226.186 
8 *784:34 gpio_slow_sel[41] 48.9211 
*END

*D_NET *785 0.237001
*CONN
*P gpio_slow_sel[42] O
*I *874:gpio_slow_sel[42] O *D counter_gpio_config_example
*CAP
1 gpio_slow_sel[42] 0.000108404
2 *874:gpio_slow_sel[42] 0.00797534
3 *785:13 0.0031703
4 *785:11 0.0030619
5 *785:9 0.107355
6 *785:7 0.107355
7 *785:5 0.00797534
8 *785:5 *786:5 0
9 *785:5 *832:7 0
10 *124:17 *785:9 0
11 *566:10 *785:9 0
*RES
1 *874:gpio_slow_sel[42] *785:5 176.848 
2 *785:5 *785:7 8 
3 *785:7 *785:9 319.909 
4 *785:9 *785:11 8 
5 *785:11 *785:13 67.2593 
6 *785:13 gpio_slow_sel[42] 2.62036 
*END

*D_NET *786 0.284099
*CONN
*P gpio_slow_sel[43] O
*I *874:gpio_slow_sel[43] O *D counter_gpio_config_example
*CAP
1 gpio_slow_sel[43] 0.000517179
2 *874:gpio_slow_sel[43] 0.00242783
3 *786:13 0.0086486
4 *786:11 0.00813142
5 *786:9 0.120657
6 *786:7 0.120657
7 *786:5 0.00242783
8 *692:9 *786:9 0.0206319
9 *695:14 *786:9 0
10 *778:7 *786:5 0
11 *785:5 *786:5 0
*RES
1 *874:gpio_slow_sel[43] *786:5 47.9639 
2 *786:5 *786:7 8 
3 *786:7 *786:9 371.343 
4 *786:9 *786:11 8 
5 *786:11 *786:13 189.598 
6 *786:13 gpio_slow_sel[43] 23.447 
*END

*D_NET *787 0.408322
*CONN
*P gpio_slow_sel[4] O
*I *874:gpio_slow_sel[4] O *D counter_gpio_config_example
*CAP
1 gpio_slow_sel[4] 0.000106767
2 *874:gpio_slow_sel[4] 0.000220612
3 *787:17 0.151212
4 *787:15 0.151928
5 *787:9 0.0137628
6 *787:7 0.0131606
7 *787:9 *829:16 0.000228852
8 *108:13 *787:15 0.0024164
9 *145:11 *787:17 0.0031136
10 *185:9 *787:17 0
11 *205:17 *787:9 3.33299e-05
12 *240:19 *787:9 0.000269553
13 *259:29 *787:9 0.00106815
14 *278:25 *787:9 0.000824128
15 *286:19 *787:9 0.00195943
16 *425:17 *787:9 0.00100889
17 *661:13 *787:9 0.00858701
18 *685:5 *787:7 0
19 *689:9 *787:9 0.00034346
20 *694:9 *787:9 0.0363836
21 *694:13 *787:15 0.00067841
22 *705:29 *787:9 0.000968775
23 *735:9 *787:9 0.00442342
24 *749:13 *787:9 0.0150681
25 *779:16 *787:9 0.000555988
*RES
1 *874:gpio_slow_sel[4] *787:7 11.5939 
2 *787:7 *787:9 71.3253 
3 *787:9 *787:15 47.8379 
4 *787:15 *787:17 437.903 
5 *787:17 gpio_slow_sel[4] 0.409733 
*END

*D_NET *788 0.357078
*CONN
*P gpio_slow_sel[5] O
*I *874:gpio_slow_sel[5] O *D counter_gpio_config_example
*CAP
1 gpio_slow_sel[5] 0.00636679
2 *874:gpio_slow_sel[5] 0.00662572
3 *788:13 0.00901359
4 *788:11 0.0026468
5 *788:9 0.159345
6 *788:7 0.159345
7 *788:5 0.00662572
8 *92:13 *788:13 0.00171431
9 *139:13 *788:9 0
10 *380:17 *788:9 0.005395
11 *535:13 *788:9 0
12 *672:7 *788:5 0
13 *687:5 *788:5 0
*RES
1 *874:gpio_slow_sel[5] *788:5 139.521 
2 *788:5 *788:7 8 
3 *788:7 *788:9 465.625 
4 *788:9 *788:11 8 
5 *788:11 *788:13 61.4179 
6 *788:13 gpio_slow_sel[5] 23.1452 
*END

*D_NET *789 0.406403
*CONN
*P gpio_slow_sel[6] O
*I *874:gpio_slow_sel[6] O *D counter_gpio_config_example
*CAP
1 gpio_slow_sel[6] 0.183648
2 *874:gpio_slow_sel[6] 0.0194097
3 *789:12 1.48355e-05
4 *789:7 0.183634
5 *789:5 0.0194097
6 *789:5 *812:13 0
7 *305:13 gpio_slow_sel[6] 0
8 *468:13 *789:5 0.000286761
9 *570:10 gpio_slow_sel[6] 0
10 *681:7 *789:5 0
11 *721:13 *789:5 0
12 *776:5 *789:5 0
*RES
1 *874:gpio_slow_sel[6] *789:5 436.73 
2 *789:5 *789:7 8 
3 *789:7 gpio_slow_sel[6] 524.199 
4 gpio_slow_sel[6] *789:12 0.0569333 
*END

*D_NET *790 0.497674
*CONN
*P gpio_slow_sel[7] O
*I *874:gpio_slow_sel[7] O *D counter_gpio_config_example
*CAP
1 gpio_slow_sel[7] 0.00242168
2 *874:gpio_slow_sel[7] 0.058445
3 *790:9 0.170582
4 *790:7 0.168161
5 *790:5 0.058445
6 *482:9 gpio_slow_sel[7] 0
7 *482:9 *790:9 0
8 *706:13 *790:5 0.0396188
9 *707:5 *790:5 0
*RES
1 *874:gpio_slow_sel[7] *790:5 1340.33 
2 *790:5 *790:7 8 
3 *790:7 *790:9 483.829 
4 *790:9 gpio_slow_sel[7] 31.7321 
*END

*D_NET *791 0.507846
*CONN
*P gpio_slow_sel[8] O
*I *874:gpio_slow_sel[8] O *D counter_gpio_config_example
*CAP
1 gpio_slow_sel[8] 5.76396e-05
2 *874:gpio_slow_sel[8] 0.00364607
3 *791:17 0.168709
4 *791:15 0.168651
5 *791:13 0.0479548
6 *791:11 0.0549062
7 *791:5 0.0105974
8 *791:5 *804:7 0
9 *791:13 *801:13 0.000187045
10 gpio_holdover[22] *791:5 0.00175982
11 *228:13 *791:11 0
12 *307:21 *791:17 0
13 *676:5 *791:13 0.0396074
14 *678:9 *791:11 0.00248597
15 *680:11 *791:11 0.00470862
16 *754:13 *791:13 0.00457424
17 *768:5 *791:5 0
*RES
1 *874:gpio_slow_sel[8] *791:5 90.2211 
2 *791:5 *791:11 38.5531 
3 *791:11 *791:13 1497.46 
4 *791:13 *791:15 8 
5 *791:15 *791:17 484.872 
6 *791:17 gpio_slow_sel[8] 0.2212 
*END

*D_NET *792 0.675271
*CONN
*P gpio_slow_sel[9] O
*I *874:gpio_slow_sel[9] O *D counter_gpio_config_example
*CAP
1 gpio_slow_sel[9] 0.0112372
2 *874:gpio_slow_sel[9] 0.000117585
3 *792:21 0.0604698
4 *792:19 0.0492326
5 *792:17 0.161423
6 *792:15 0.161423
7 *792:13 0.106518
8 *792:11 0.106635
9 *792:17 *798:17 0
10 *484:9 gpio_slow_sel[9] 0
11 *698:5 *792:11 0
12 *719:5 *792:13 0.0077993
13 *727:19 *792:11 9.80974e-05
14 *751:13 *792:13 0.00895032
15 *775:5 *792:13 0.00136738
*RES
1 *874:gpio_slow_sel[9] *792:11 17.6659 
2 *792:11 *792:13 307.235 
3 *792:13 *792:15 8 
4 *792:15 *792:17 466.355 
5 *792:17 *792:19 8 
6 *792:19 *792:21 1148.13 
7 *792:21 gpio_slow_sel[9] 37.8881 
*END

*D_NET *793 0.455995
*CONN
*P gpio_vtrip_sel[0] O
*I *874:gpio_vtrip_sel[0] O *D counter_gpio_config_example
*CAP
1 gpio_vtrip_sel[0] 1.72676e-05
2 *874:gpio_vtrip_sel[0] 0.00013145
3 *793:19 0.145629
4 *793:17 0.145612
5 *793:15 0.0402386
6 *793:13 0.0402386
7 *793:11 0.0155077
8 *793:9 0.0156391
9 *793:9 *803:5 0
10 gpio_ib_mode_sel[0] *793:19 0
11 *146:17 *793:11 0.000989496
12 *205:17 *793:11 0.00715692
13 *259:29 *793:11 0.000637424
14 *397:17 *793:19 0
15 *661:29 *793:19 0
16 *686:5 *793:9 0
17 *716:19 *793:11 0.0387163
18 *749:21 *793:11 0.00548089
*RES
1 *874:gpio_vtrip_sel[0] *793:9 17.6307 
2 *793:9 *793:11 497.06 
3 *793:11 *793:13 15 
4 *793:13 *793:15 909.202 
5 *793:15 *793:17 8 
6 *793:17 *793:19 424.336 
7 *793:19 gpio_vtrip_sel[0] 0.0662667 
*END

*D_NET *794 0.996439
*CONN
*P gpio_vtrip_sel[10] O
*I *874:gpio_vtrip_sel[10] O *D counter_gpio_config_example
*CAP
1 gpio_vtrip_sel[10] 0.00658593
2 *874:gpio_vtrip_sel[10] 0.000985233
3 *794:13 0.143059
4 *794:11 0.136473
5 *794:9 0.0679702
6 *794:7 0.0689555
7 *794:7 *831:7 0
8 *100:13 *794:13 0.000383182
9 *131:13 *794:13 0.0716295
10 *564:10 *794:9 0.0012184
11 *662:31 gpio_vtrip_sel[10] 0
12 *701:9 *794:9 0.253597
13 *702:9 *794:9 0.241198
14 *706:17 gpio_vtrip_sel[10] 0
15 *718:9 *794:9 0.0043835
16 *737:5 *794:7 0
*RES
1 *874:gpio_vtrip_sel[10] *794:7 24.9754 
2 *794:7 *794:9 488.981 
3 *794:9 *794:11 8 
4 *794:11 *794:13 3160.98 
5 *794:13 gpio_vtrip_sel[10] 24.6945 
*END

*D_NET *795 0.622692
*CONN
*P gpio_vtrip_sel[11] O
*I *874:gpio_vtrip_sel[11] O *D counter_gpio_config_example
*CAP
1 gpio_vtrip_sel[11] 3.3231e-05
2 *874:gpio_vtrip_sel[11] 0.0792666
3 *795:9 0.156303
4 *795:7 0.15627
5 *795:5 0.0792666
6 *795:5 *802:5 0
7 *795:5 *805:21 0.0398155
8 gpio_ib_mode_sel[11] *795:9 0.00183984
9 *399:17 *795:9 0.0270331
10 *415:17 *795:9 0.0295628
11 *661:13 *795:5 0
12 *663:13 *795:9 0
13 *750:13 *795:5 0.0533014
*RES
1 *874:gpio_vtrip_sel[11] *795:5 2345.34 
2 *795:5 *795:7 8 
3 *795:7 *795:9 492.343 
4 *795:9 gpio_vtrip_sel[11] 0.1316 
*END

*D_NET *796 0.62643
*CONN
*P gpio_vtrip_sel[12] O
*I *874:gpio_vtrip_sel[12] O *D counter_gpio_config_example
*CAP
1 gpio_vtrip_sel[12] 0.000261196
2 *874:gpio_vtrip_sel[12] 0.00241095
3 *796:17 0.15955
4 *796:15 0.159289
5 *796:13 0.0838382
6 *796:11 0.0854095
7 *796:5 0.00398229
8 gpio_holdover[12] *796:17 0
9 gpio_out[12] *796:17 0
10 *143:13 *796:11 0.000265253
11 *370:17 *796:17 0.00350044
12 *400:17 *796:17 0
13 *682:5 *796:13 0.127923
14 *703:177 *796:5 0
15 *703:179 *796:5 0
16 *749:13 *796:5 0
17 *774:5 *796:13 0
*RES
1 *874:gpio_vtrip_sel[12] *796:5 43.7382 
2 *796:5 *796:11 20.1776 
3 *796:11 *796:13 2529.94 
4 *796:13 *796:15 8 
5 *796:15 *796:17 471.992 
6 *796:17 gpio_vtrip_sel[12] 1.0052 
*END

*D_NET *797 0.691039
*CONN
*P gpio_vtrip_sel[13] O
*I *874:gpio_vtrip_sel[13] O *D counter_gpio_config_example
*CAP
1 gpio_vtrip_sel[13] 9.26611e-05
2 *874:gpio_vtrip_sel[13] 0.0104117
3 *797:17 0.0619123
4 *797:15 0.0618197
5 *797:13 0.121064
6 *797:11 0.121064
7 *797:9 0.0837132
8 *797:7 0.0837132
9 *797:5 0.0104117
10 gpio_ib_mode_sel[13] *797:17 0.00038764
11 *281:19 *797:9 4.59167e-06
12 *401:17 *797:17 0.136445
13 *665:34 *797:17 0
14 *722:5 *797:5 0
15 *750:9 *797:5 0
*RES
1 *874:gpio_vtrip_sel[13] *797:5 225.444 
2 *797:5 *797:7 8 
3 *797:7 *797:9 236.447 
4 *797:9 *797:11 8 
5 *797:11 *797:13 2813.77 
6 *797:13 *797:15 8 
7 *797:15 *797:17 260.76 
8 *797:17 gpio_vtrip_sel[13] 0.3556 
*END

*D_NET *798 0.867062
*CONN
*P gpio_vtrip_sel[14] O
*I *874:gpio_vtrip_sel[14] O *D counter_gpio_config_example
*CAP
1 gpio_vtrip_sel[14] 0.00443288
2 *874:gpio_vtrip_sel[14] 0.000161776
3 *798:21 0.126323
4 *798:19 0.12189
5 *798:17 0.174087
6 *798:15 0.174087
7 *798:13 0.0960293
8 *798:11 0.0961911
9 *798:11 *800:11 0
10 *798:11 *828:5 0
11 *798:13 *800:13 0.0129869
12 *798:13 *814:13 0
13 *798:17 *801:17 0
14 gpio_ib_mode_sel[14] gpio_vtrip_sel[14] 0.00196259
15 *92:13 *798:21 0.0468521
16 *666:21 gpio_vtrip_sel[14] 0.0056774
17 *690:13 *798:11 4.86653e-05
18 *710:13 *798:13 0
19 *728:25 *798:17 0
20 *769:5 *798:13 0.00633268
21 *792:17 *798:17 0
*RES
1 *874:gpio_vtrip_sel[14] *798:11 17.6659 
2 *798:11 *798:13 308.504 
3 *798:13 *798:15 8 
4 *798:15 *798:17 500.959 
5 *798:17 *798:19 8 
6 *798:19 *798:21 2828.56 
7 *798:21 gpio_vtrip_sel[14] 22.9753 
*END

*D_NET *799 0.670318
*CONN
*P gpio_vtrip_sel[15] O
*I *874:gpio_vtrip_sel[15] O *D counter_gpio_config_example
*CAP
1 gpio_vtrip_sel[15] 9.62404e-05
2 *874:gpio_vtrip_sel[15] 0.0330052
3 *799:13 0.126422
4 *799:11 0.126326
5 *799:9 0.148631
6 *799:7 0.148631
7 *799:5 0.0330052
8 *799:9 *835:17 0
9 gpio_ib_mode_sel[15] gpio_vtrip_sel[15] 0
10 *226:13 *799:13 0.0542027
11 *403:21 *799:13 0
*RES
1 *874:gpio_vtrip_sel[15] *799:5 718.444 
2 *799:5 *799:7 8 
3 *799:7 *799:9 430.248 
4 *799:9 *799:11 8 
5 *799:11 *799:13 2938.43 
6 *799:13 gpio_vtrip_sel[15] 1.86429 
*END

*D_NET *800 0.845429
*CONN
*P gpio_vtrip_sel[16] O
*I *874:gpio_vtrip_sel[16] O *D counter_gpio_config_example
*CAP
1 gpio_vtrip_sel[16] 0.0114058
2 *874:gpio_vtrip_sel[16] 0.000127935
3 *800:19 0.0114058
4 *800:17 0.129197
5 *800:15 0.129197
6 *800:13 0.232972
7 *800:11 0.2331
8 gpio_ib_mode_sel[16] gpio_vtrip_sel[16] 0
9 *690:13 *800:11 2.60531e-05
10 *747:5 *800:13 0.0245276
11 *761:11 *800:11 0
12 *761:13 *800:13 0.0470076
13 *762:13 *800:13 0
14 *769:5 *800:13 0.0134759
15 *798:11 *800:11 0
16 *798:13 *800:13 0.0129869
*RES
1 *874:gpio_vtrip_sel[16] *800:11 17.58 
2 *800:11 *800:13 800.498 
3 *800:13 *800:15 8 
4 *800:15 *800:17 377.225 
5 *800:17 *800:19 8 
6 *800:19 gpio_vtrip_sel[16] 252.911 
*END

*D_NET *801 0.667911
*CONN
*P gpio_vtrip_sel[17] O
*I *874:gpio_vtrip_sel[17] O *D counter_gpio_config_example
*CAP
1 gpio_vtrip_sel[17] 0.12788
2 *874:gpio_vtrip_sel[17] 0.000123515
3 *801:19 0.12788
4 *801:17 0.103517
5 *801:15 0.103517
6 *801:13 0.0955417
7 *801:11 0.0956652
8 *801:13 *810:13 0
9 gpio_ib_mode_sel[17] gpio_vtrip_sel[17] 0
10 *122:177 *801:13 0.000854445
11 *683:9 *801:11 4.86653e-05
12 *700:7 *801:11 0
13 *754:11 *801:11 0
14 *754:13 *801:13 0.0126973
15 *791:13 *801:13 0.000187045
16 *798:17 *801:17 0
*RES
1 *874:gpio_vtrip_sel[17] *801:11 17.6659 
2 *801:11 *801:13 309.773 
3 *801:13 *801:15 8 
4 *801:15 *801:17 297.283 
5 *801:17 *801:19 8 
6 *801:19 gpio_vtrip_sel[17] 2975.68 
*END

*D_NET *802 0.473192
*CONN
*P gpio_vtrip_sel[18] O
*I *874:gpio_vtrip_sel[18] O *D counter_gpio_config_example
*CAP
1 gpio_vtrip_sel[18] 0.124848
2 *874:gpio_vtrip_sel[18] 0.0333761
3 *802:11 0.124848
4 *802:9 0.078372
5 *802:7 0.078372
6 *802:5 0.0333761
7 gpio_ib_mode_sel[18] gpio_vtrip_sel[18] 0
8 *720:5 *802:5 0
9 *750:13 *802:5 0
10 *795:5 *802:5 0
*RES
1 *874:gpio_vtrip_sel[18] *802:5 754.362 
2 *802:5 *802:7 8 
3 *802:7 *802:9 222.794 
4 *802:9 *802:11 8 
5 *802:11 gpio_vtrip_sel[18] 2903.84 
*END

*D_NET *803 0.428371
*CONN
*P gpio_vtrip_sel[19] O
*I *874:gpio_vtrip_sel[19] O *D counter_gpio_config_example
*CAP
1 gpio_vtrip_sel[19] 0.152129
2 *874:gpio_vtrip_sel[19] 0.00614023
3 *803:11 0.152129
4 *803:9 0.0522296
5 *803:7 0.0522296
6 *803:5 0.00614023
7 gpio_ib_mode_sel[19] gpio_vtrip_sel[19] 0
8 *466:17 *803:9 0
9 *535:13 *803:9 0
10 *763:11 *803:9 0.0073725
11 *793:9 *803:5 0
*RES
1 *874:gpio_vtrip_sel[19] *803:5 125.435 
2 *803:5 *803:7 8 
3 *803:7 *803:9 148.176 
4 *803:9 *803:11 8 
5 *803:11 gpio_vtrip_sel[19] 3532.77 
*END

*D_NET *804 0.422285
*CONN
*P gpio_vtrip_sel[1] O
*I *874:gpio_vtrip_sel[1] O *D counter_gpio_config_example
*CAP
1 gpio_vtrip_sel[1] 0.0143488
2 *874:gpio_vtrip_sel[1] 0.000280285
3 *804:13 0.0437481
4 *804:11 0.0293993
5 *804:9 0.0785572
6 *804:7 0.0788375
7 gpio_ib_mode_sel[1] gpio_vtrip_sel[1] 0
8 *127:21 *804:9 0
9 *259:29 *804:9 0.130047
10 *278:25 *804:9 0.00789612
11 *286:19 *804:9 0.000100139
12 *408:17 gpio_vtrip_sel[1] 0
13 *562:9 *804:9 0.0346864
14 *661:13 *804:9 0.000981424
15 *716:27 gpio_vtrip_sel[1] 0
16 *735:9 *804:9 0.000268671
17 *749:13 *804:9 0.00313343
18 *791:5 *804:7 0
*RES
1 *874:gpio_vtrip_sel[1] *804:7 19.4743 
2 *804:7 *804:9 2601.45 
3 *804:9 *804:11 15 
4 *804:11 *804:13 676.435 
5 *804:13 gpio_vtrip_sel[1] 46.2116 
*END

*D_NET *805 0.674931
*CONN
*P gpio_vtrip_sel[20] O
*I *874:gpio_vtrip_sel[20] O *D counter_gpio_config_example
*CAP
1 gpio_vtrip_sel[20] 8.98303e-05
2 *874:gpio_vtrip_sel[20] 9.78838e-05
3 *805:29 0.00577991
4 *805:27 0.00569008
5 *805:25 0.0268941
6 *805:23 0.0268941
7 *805:21 0.217755
8 *805:19 0.223828
9 *805:13 0.0494632
10 *805:11 0.0434879
11 gpio_ib_mode_sel[20] gpio_vtrip_sel[20] 0
12 gpio_ib_mode_sel[20] *805:29 0
13 *122:177 *805:19 0.000127617
14 *145:13 *805:29 0
15 *187:17 *805:25 0.00230703
16 *368:61 *805:25 0
17 *674:7 *805:11 0
18 *727:19 *805:11 5.25168e-05
19 *750:13 *805:21 0.0326486
20 *795:5 *805:21 0.0398155
*RES
1 *874:gpio_vtrip_sel[20] *805:11 17.58 
2 *805:11 *805:13 134.071 
3 *805:13 *805:19 18.8869 
4 *805:19 *805:21 670.41 
5 *805:21 *805:23 8 
6 *805:23 *805:25 78.9245 
7 *805:25 *805:27 8 
8 *805:27 *805:29 129.734 
9 *805:29 gpio_vtrip_sel[20] 1.86429 
*END

*D_NET *806 0.569969
*CONN
*P gpio_vtrip_sel[21] O
*I *874:gpio_vtrip_sel[21] O *D counter_gpio_config_example
*CAP
1 gpio_vtrip_sel[21] 8.65447e-05
2 *874:gpio_vtrip_sel[21] 0.000136139
3 *806:21 0.00878011
4 *806:19 0.00869357
5 *806:17 0.0131888
6 *806:13 0.274874
7 *806:11 0.261821
8 *410:21 gpio_vtrip_sel[21] 2.11406e-05
9 *410:21 *806:21 0
10 *534:34 *806:17 0
11 *568:5 *806:13 0.00231917
12 *690:13 *806:11 4.86653e-05
13 *717:7 *806:11 0
14 *728:13 *806:13 0
15 *728:19 *806:13 0
16 *728:21 *806:13 0
17 *743:13 *806:13 0
*RES
1 *874:gpio_vtrip_sel[21] *806:11 17.6659 
2 *806:11 *806:13 810.906 
3 *806:13 *806:17 46.7389 
4 *806:17 *806:19 8 
5 *806:19 *806:21 193.824 
6 *806:21 gpio_vtrip_sel[21] 1.86429 
*END

*D_NET *807 0.590162
*CONN
*P gpio_vtrip_sel[22] O
*I *874:gpio_vtrip_sel[22] O *D counter_gpio_config_example
*CAP
1 gpio_vtrip_sel[22] 0.0102912
2 *874:gpio_vtrip_sel[22] 0.000161776
3 *807:19 0.010558
4 *807:13 0.231835
5 *807:11 0.23173
6 *807:13 *835:13 0
7 gpio_ib_mode_sel[22] gpio_vtrip_sel[22] 0
8 *685:5 *807:13 0.000363013
9 *690:13 *807:11 4.86653e-05
10 *696:10 *807:13 0.040166
11 *755:11 *807:11 0
12 *755:13 *807:13 0.0343193
13 *768:5 *807:13 0.0306891
14 *777:7 *807:11 0
*RES
1 *874:gpio_vtrip_sel[22] *807:11 17.6659 
2 *807:11 *807:13 803.798 
3 *807:13 *807:19 16.9576 
4 *807:19 gpio_vtrip_sel[22] 234.6 
*END

*D_NET *808 0.377959
*CONN
*P gpio_vtrip_sel[23] O
*I *874:gpio_vtrip_sel[23] O *D counter_gpio_config_example
*CAP
1 gpio_vtrip_sel[23] 0.00240398
2 *874:gpio_vtrip_sel[23] 0.145846
3 *808:13 0.0131182
4 *808:11 0.0107142
5 *808:9 0.030015
6 *808:7 0.030015
7 *808:5 0.145846
8 gpio_ib_mode_sel[23] gpio_vtrip_sel[23] 0
9 *412:9 *808:13 0
10 *572:5 *808:5 0
11 *666:17 *808:13 0
12 *745:5 *808:5 0
*RES
1 *874:gpio_vtrip_sel[23] *808:5 3370.08 
2 *808:5 *808:7 8 
3 *808:7 *808:9 86.6955 
4 *808:9 *808:11 8 
5 *808:11 *808:13 239.664 
6 *808:13 gpio_vtrip_sel[23] 49.8489 
*END

*D_NET *809 0.471549
*CONN
*P gpio_vtrip_sel[24] O
*I *874:gpio_vtrip_sel[24] O *D counter_gpio_config_example
*CAP
1 gpio_vtrip_sel[24] 0.00137474
2 *874:gpio_vtrip_sel[24] 0.00237862
3 *809:17 0.0333385
4 *809:15 0.0319637
5 *809:13 0.115214
6 *809:11 0.116316
7 *809:5 0.00348039
8 *809:5 *818:5 0
9 gpio_ib_mode_sel[24] gpio_vtrip_sel[24] 0.00171268
10 gpio_ib_mode_sel[24] *809:17 0.00632168
11 gpio_oeb[24] *809:17 0
12 *143:13 *809:11 0.000222729
13 *677:17 *809:17 0
14 *680:13 *809:13 0.159226
15 *712:5 *809:5 0
16 *720:5 *809:13 0
17 *721:17 gpio_vtrip_sel[24] 0
18 *721:17 *809:17 0
19 *775:5 *809:13 0
*RES
1 *874:gpio_vtrip_sel[24] *809:5 43.7382 
2 *809:5 *809:11 19.4048 
3 *809:11 *809:13 3408.89 
4 *809:13 *809:15 8 
5 *809:15 *809:17 93.9083 
6 *809:17 gpio_vtrip_sel[24] 21.3513 
*END

*D_NET *810 0.514666
*CONN
*P gpio_vtrip_sel[25] O
*I *874:gpio_vtrip_sel[25] O *D counter_gpio_config_example
*CAP
1 gpio_vtrip_sel[25] 0.006002
2 *874:gpio_vtrip_sel[25] 0.000123515
3 *810:21 0.0623657
4 *810:19 0.0563637
5 *810:17 0.0328193
6 *810:15 0.0328193
7 *810:13 0.110315
8 *810:11 0.110439
9 gpio_ib_mode_sel[25] gpio_vtrip_sel[25] 0.000192836
10 gpio_oeb[25] gpio_vtrip_sel[25] 0
11 *113:17 *810:17 0
12 *245:13 *810:17 0
13 *289:9 *810:21 0.000104065
14 *365:9 *810:21 0
15 *366:9 *810:21 0
16 *370:17 gpio_vtrip_sel[25] 0.00189679
17 *413:17 *810:21 0.00849469
18 *673:11 *810:11 0
19 *673:13 *810:13 0.0176428
20 *676:5 *810:13 0.00552128
21 *678:19 gpio_vtrip_sel[25] 0
22 *683:9 *810:11 4.86653e-05
23 *722:17 gpio_vtrip_sel[25] 0
24 *754:11 *810:11 0
25 *754:13 *810:13 0.0430662
26 *757:5 *810:13 0.0264509
27 *801:13 *810:13 0
*RES
1 *874:gpio_vtrip_sel[25] *810:11 17.6659 
2 *810:11 *810:13 415.382 
3 *810:13 *810:15 8 
4 *810:15 *810:17 89.4861 
5 *810:17 *810:19 8 
6 *810:19 *810:21 1305.19 
7 *810:21 gpio_vtrip_sel[25] 24.8047 
*END

*D_NET *811 0.364325
*CONN
*P gpio_vtrip_sel[26] O
*I *874:gpio_vtrip_sel[26] O *D counter_gpio_config_example
*CAP
1 gpio_vtrip_sel[26] 2.11588e-05
2 *874:gpio_vtrip_sel[26] 0.0071626
3 *811:17 0.019923
4 *811:15 0.0199018
5 *811:13 0.0679424
6 *811:11 0.0735218
7 *811:5 0.0127419
8 *811:5 *812:5 0
9 gpio_ib_mode_sel[26] *811:17 0
10 gpio_inp_dis[22] *811:5 0
11 *139:13 *811:11 0.0134444
12 *415:17 *811:17 0
13 *556:17 *811:11 0.0021534
14 *663:13 *811:17 0.0137145
15 *685:13 *811:13 0.00488854
16 *723:9 *811:17 0
17 *725:21 *811:13 0.128909
18 *772:5 *811:5 0
*RES
1 *874:gpio_vtrip_sel[26] *811:5 147.268 
2 *811:5 *811:11 41.6443 
3 *811:11 *811:13 2205.97 
4 *811:13 *811:15 8 
5 *811:15 *811:17 61.208 
6 *811:17 gpio_vtrip_sel[26] 0.0812 
*END

*D_NET *812 0.348488
*CONN
*P gpio_vtrip_sel[27] O
*I *874:gpio_vtrip_sel[27] O *D counter_gpio_config_example
*CAP
1 gpio_vtrip_sel[27] 0.00655932
2 *874:gpio_vtrip_sel[27] 0.00411382
3 *812:17 0.0250116
4 *812:15 0.0184523
5 *812:13 0.0560532
6 *812:11 0.0617814
7 *812:5 0.00984199
8 gpio_ib_mode_sel[27] gpio_vtrip_sel[27] 0.000544967
9 gpio_inp_dis[22] *812:5 0.00242232
10 *228:13 *812:11 0.00208306
11 *359:13 *812:11 0
12 *365:9 gpio_vtrip_sel[27] 0.000120707
13 *413:17 gpio_vtrip_sel[27] 0.000363588
14 *677:13 *812:13 0.1491
15 *680:17 *812:17 0
16 *681:7 *812:13 0.0051245
17 *684:11 *812:11 0.00691499
18 *688:5 *812:5 0
19 *724:17 gpio_vtrip_sel[27] 0
20 *789:5 *812:13 0
21 *811:5 *812:5 0
*RES
1 *874:gpio_vtrip_sel[27] *812:5 97.9682 
2 *812:5 *812:11 37.0075 
3 *812:11 *812:13 2025.67 
4 *812:13 *812:15 8 
5 *812:15 *812:17 51.0179 
6 *812:17 gpio_vtrip_sel[27] 16.5751 
*END

*D_NET *813 0.392907
*CONN
*P gpio_vtrip_sel[28] O
*I *874:gpio_vtrip_sel[28] O *D counter_gpio_config_example
*CAP
1 gpio_vtrip_sel[28] 0.0023773
2 *874:gpio_vtrip_sel[28] 0.000752829
3 *813:13 0.134364
4 *813:11 0.131986
5 *813:9 0.014829
6 *813:7 0.0155818
7 *813:7 *830:5 0
8 *813:9 *819:9 0.0359538
9 gpio_ib_mode_sel[28] gpio_vtrip_sel[28] 0.00140056
10 *462:19 *813:9 0.0492965
11 *529:13 *813:9 0.00542733
12 *674:9 *813:9 0.000937914
13 *706:11 *813:7 0
14 *725:25 gpio_vtrip_sel[28] 0
*RES
1 *874:gpio_vtrip_sel[28] *813:7 20.0454 
2 *813:7 *813:9 95.4539 
3 *813:9 *813:11 8 
4 *813:11 *813:13 2949.69 
5 *813:13 gpio_vtrip_sel[28] 14.2692 
*END

*D_NET *814 0.339089
*CONN
*P gpio_vtrip_sel[29] O
*I *874:gpio_vtrip_sel[29] O *D counter_gpio_config_example
*CAP
1 gpio_vtrip_sel[29] 6.15309e-05
2 *874:gpio_vtrip_sel[29] 0.000158368
3 *814:25 0.0229848
4 *814:23 0.0229233
5 *814:21 0.0671045
6 *814:19 0.0729922
7 *814:13 0.0630055
8 *814:11 0.0572762
9 gpio_holdover[29] *814:25 0
10 gpio_ib_mode_sel[29] *814:25 0
11 *535:13 *814:19 0
12 *682:9 *814:25 0
13 *686:5 *814:13 0.000544505
14 *690:13 *814:11 4.86653e-05
15 *710:11 *814:11 0
16 *710:13 *814:13 0.0296772
17 *763:11 *814:19 0.00195381
18 *772:13 *814:13 0.000358454
19 *798:13 *814:13 0
*RES
1 *874:gpio_vtrip_sel[29] *814:11 17.6659 
2 *814:11 *814:13 209.369 
3 *814:13 *814:19 34.1309 
4 *814:19 *814:21 1555.21 
5 *814:21 *814:23 8 
6 *814:23 *814:25 58.632 
7 *814:25 gpio_vtrip_sel[29] 0.236133 
*END

*D_NET *815 0.586384
*CONN
*P gpio_vtrip_sel[2] O
*I *874:gpio_vtrip_sel[2] O *D counter_gpio_config_example
*CAP
1 gpio_vtrip_sel[2] 0.000104335
2 *874:gpio_vtrip_sel[2] 0.000435626
3 *815:21 0.105115
4 *815:19 0.105011
5 *815:17 0.0160382
6 *815:15 0.0226832
7 *815:11 0.00708062
8 gpio_ib_mode_sel[2] *815:21 0.00076766
9 *137:11 *815:17 0
10 *160:17 *815:17 0.000936585
11 *177:11 *815:21 0.00112298
12 *214:11 *815:21 0.00478574
13 *234:11 *815:17 0
14 *234:13 *815:17 0.000283513
15 *362:9 *815:21 0
16 *419:17 *815:21 0.225346
17 *444:21 *815:17 0
18 *450:17 *815:15 0.000555221
19 *543:13 *815:17 0.00349828
20 *546:13 *815:17 0
21 *567:15 *815:15 0.00344839
22 *567:21 *815:15 0.000272176
23 *683:9 *815:11 0.000258834
24 *683:9 *815:15 0.0215495
25 *692:5 *815:11 5.79922e-05
26 *727:19 *815:11 3.41998e-06
27 *727:25 *815:17 0.0454786
28 *760:13 *815:15 0.0215507
*RES
1 *874:gpio_vtrip_sel[2] *815:11 14.7425 
2 *815:11 *815:15 49.7872 
3 *815:15 *815:17 595.971 
4 *815:17 *815:19 8 
5 *815:19 *815:21 441.08 
6 *815:21 gpio_vtrip_sel[2] 0.4004 
*END

*D_NET *816 0.266584
*CONN
*P gpio_vtrip_sel[30] O
*I *874:gpio_vtrip_sel[30] O *D counter_gpio_config_example
*CAP
1 gpio_vtrip_sel[30] 0.0066772
2 *874:gpio_vtrip_sel[30] 0.00539736
3 *816:19 0.0154731
4 *816:13 0.0453307
5 *816:11 0.040522
6 *816:5 0.00938462
7 gpio_ib_mode_sel[30] gpio_vtrip_sel[30] 0.000399696
8 *365:9 *816:19 0.000120707
9 *413:17 *816:19 0.000363588
10 *420:18 gpio_vtrip_sel[30] 0
11 *420:18 *816:19 0.0154655
12 *536:13 *816:11 0.00940172
13 *662:27 *816:13 0.0101588
14 *665:30 *816:13 0.105275
15 *688:25 *816:11 0.00122825
16 *732:5 *816:5 0
17 *732:13 *816:13 0.00138567
18 *733:9 *816:5 0
*RES
1 *874:gpio_vtrip_sel[30] *816:5 112.054 
2 *816:5 *816:11 34.1739 
3 *816:11 *816:13 1340.4 
4 *816:13 *816:19 39.1005 
5 *816:19 gpio_vtrip_sel[30] 15.8919 
*END

*D_NET *817 0.352413
*CONN
*P gpio_vtrip_sel[31] O
*I *874:gpio_vtrip_sel[31] O *D counter_gpio_config_example
*CAP
1 gpio_vtrip_sel[31] 0.0022027
2 *874:gpio_vtrip_sel[31] 0.000158368
3 *817:25 0.0322234
4 *817:23 0.0300208
5 *817:21 0.0679143
6 *817:19 0.0747581
7 *817:13 0.0397294
8 *817:11 0.0330439
9 gpio_ib_mode_sel[22] *817:21 0.0102455
10 gpio_ib_mode_sel[31] gpio_vtrip_sel[31] 0.000811744
11 *122:177 *817:19 0.000287558
12 *462:15 gpio_vtrip_sel[31] 0.00077867
13 *690:13 *817:11 4.86653e-05
14 *729:17 *817:25 0
15 *755:11 *817:11 0
16 *755:13 *817:13 0.0178739
17 *755:13 *817:19 0.005798
18 *755:13 *817:21 0.0365179
*RES
1 *874:gpio_vtrip_sel[31] *817:11 17.6659 
2 *817:11 *817:13 125.055 
3 *817:13 *817:19 27.5595 
4 *817:19 *817:21 253.053 
5 *817:21 *817:23 8 
6 *817:23 *817:25 78.1517 
7 *817:25 gpio_vtrip_sel[31] 40.4417 
*END

*D_NET *818 0.145587
*CONN
*P gpio_vtrip_sel[32] O
*I *874:gpio_vtrip_sel[32] O *D counter_gpio_config_example
*CAP
1 gpio_vtrip_sel[32] 0.00456324
2 *874:gpio_vtrip_sel[32] 0.0187988
3 *818:13 0.00874694
4 *818:11 0.0041837
5 *818:9 0.0314383
6 *818:7 0.0314383
7 *818:5 0.0187988
8 gpio_ib_mode_sel[32] gpio_vtrip_sel[32] 6.01509e-05
9 gpio_oeb[32] gpio_vtrip_sel[32] 0
10 gpio_out[32] gpio_vtrip_sel[32] 0
11 *467:13 *818:9 2.65532e-05
12 *545:22 *818:9 0
13 *548:9 *818:13 0.0120884
14 *668:9 *818:9 0.0154433
15 *752:5 *818:5 0
16 *809:5 *818:5 0
*RES
1 *874:gpio_vtrip_sel[32] *818:5 419.122 
2 *818:5 *818:7 8 
3 *818:7 *818:9 91.3323 
4 *818:9 *818:11 8 
5 *818:11 *818:13 153.679 
6 *818:13 gpio_vtrip_sel[32] 18.1145 
*END

*D_NET *819 0.23841
*CONN
*P gpio_vtrip_sel[33] O
*I *874:gpio_vtrip_sel[33] O *D counter_gpio_config_example
*CAP
1 gpio_vtrip_sel[33] 0.00384812
2 *874:gpio_vtrip_sel[33] 0.000812418
3 *819:13 0.0640793
4 *819:11 0.0602312
5 *819:9 0.0116522
6 *819:7 0.0124646
7 *416:19 *819:13 0.00387522
8 *416:23 *819:13 0.00134552
9 *416:25 *819:13 0.00986237
10 *417:9 *819:13 0
11 *423:17 gpio_vtrip_sel[33] 0.000521457
12 *424:9 *819:13 0.00799448
13 *424:33 *819:13 0
14 *529:13 *819:9 0.0257689
15 *701:7 *819:7 0
16 *710:11 *819:7 0
17 *813:9 *819:9 0.0359538
*RES
1 *874:gpio_vtrip_sel[33] *819:7 20.7496 
2 *819:7 *819:9 69.4363 
3 *819:9 *819:11 8 
4 *819:11 *819:13 1394.63 
5 *819:13 gpio_vtrip_sel[33] 16.8676 
*END

*D_NET *820 0.262172
*CONN
*P gpio_vtrip_sel[34] O
*I *874:gpio_vtrip_sel[34] O *D counter_gpio_config_example
*CAP
1 gpio_vtrip_sel[34] 0.00410054
2 *874:gpio_vtrip_sel[34] 0.000304979
3 *820:13 0.0384719
4 *820:11 0.0343713
5 *820:9 0.0105115
6 *820:7 0.0108164
7 *820:7 *833:7 0
8 *820:9 *821:9 2.47358e-05
9 gpio_ib_mode_sel[34] gpio_vtrip_sel[34] 0.00441973
10 gpio_out[34] gpio_vtrip_sel[34] 0
11 *458:11 *820:13 0.0903394
12 *460:19 *820:9 8.51007e-06
13 *470:15 *820:9 0.00303736
14 *662:15 *820:9 0.000741147
15 *726:19 *820:9 0.00925079
16 *730:7 *820:7 0
17 *777:9 *820:9 0.0357045
18 *778:11 *820:9 0.0200693
*RES
1 *874:gpio_vtrip_sel[34] *820:7 13.0025 
2 *820:7 *820:9 69.1787 
3 *820:9 *820:11 8 
4 *820:11 *820:13 1162.92 
5 *820:13 gpio_vtrip_sel[34] 19.5743 
*END

*D_NET *821 0.264703
*CONN
*P gpio_vtrip_sel[35] O
*I *874:gpio_vtrip_sel[35] O *D counter_gpio_config_example
*CAP
1 gpio_vtrip_sel[35] 0.0102757
2 *874:gpio_vtrip_sel[35] 0.000440322
3 *821:13 0.0355792
4 *821:11 0.0253035
5 *821:9 0.0121094
6 *821:7 0.0125497
7 gpio_ib_mode_sel[35] gpio_vtrip_sel[35] 0.000508852
8 gpio_oeb[35] gpio_vtrip_sel[35] 0.0113866
9 *95:9 *821:13 0
10 *102:9 *821:13 0
11 *151:9 *821:13 0.031369
12 *168:9 *821:13 0
13 *325:9 *821:13 0.00760338
14 *460:19 *821:9 0.00031657
15 *470:11 *821:13 0.031433
16 *470:15 *821:9 0.0430872
17 *471:15 *821:9 0.0425472
18 *725:11 *821:7 0
19 *726:15 *821:13 0.000122488
20 *730:17 *821:13 4.60157e-05
21 *820:9 *821:9 2.47358e-05
*RES
1 *874:gpio_vtrip_sel[35] *821:7 15.1154 
2 *821:7 *821:9 83.6043 
3 *821:9 *821:11 8 
4 *821:11 *821:13 942.479 
5 *821:13 gpio_vtrip_sel[35] 37.3972 
*END

*D_NET *822 0.0994538
*CONN
*P gpio_vtrip_sel[36] O
*I *874:gpio_vtrip_sel[36] O *D counter_gpio_config_example
*CAP
1 gpio_vtrip_sel[36] 0.0107631
2 *874:gpio_vtrip_sel[36] 0.010332
3 *822:10 0.0240202
4 *822:8 0.0132571
5 *822:6 0.010332
6 *822:6 *823:6 0.0210211
7 *183:9 *822:10 0
8 *193:9 *822:10 0.000813907
9 *205:17 *822:6 0.00384678
10 *284:9 *822:10 0.00497265
11 *304:9 *822:10 0
12 *377:15 *822:6 7.23372e-05
13 *691:9 *822:6 2.27096e-05
14 *734:9 *822:6 0
*RES
1 *874:gpio_vtrip_sel[36] *822:6 49.3579 
2 *822:6 *822:8 8 
3 *822:8 *822:10 316.369 
4 *822:10 gpio_vtrip_sel[36] 32.5793 
*END

*D_NET *823 0.140212
*CONN
*P gpio_vtrip_sel[37] O
*I *874:gpio_vtrip_sel[37] O *D counter_gpio_config_example
*CAP
1 gpio_vtrip_sel[37] 0.00117755
2 *874:gpio_vtrip_sel[37] 0
3 *823:16 0.00892476
4 *823:10 0.0311863
5 *823:8 0.0234391
6 *823:6 0.0232095
7 *823:4 0.0232095
8 *823:6 *826:10 0.00374965
9 gpio_analog_sel[37] *823:16 0.00023279
10 gpio_ib_mode_sel[37] gpio_vtrip_sel[37] 6.64837e-05
11 *205:17 *823:6 0.0012873
12 *279:9 *823:10 0
13 *295:24 *823:16 0
14 *339:35 gpio_vtrip_sel[37] 0
15 *354:17 *823:10 0
16 *395:9 *823:10 0
17 *427:21 gpio_vtrip_sel[37] 0.000725944
18 *695:8 *823:6 0.000783414
19 *696:8 *823:6 0.000898642
20 *716:17 *823:6 0.000299518
21 *726:21 gpio_vtrip_sel[37] 0
22 *734:9 *823:6 0
23 *822:6 *823:6 0.0210211
*RES
1 *874:gpio_vtrip_sel[37] *823:4 8 
2 *823:4 *823:6 78.3664 
3 *823:6 *823:8 8 
4 *823:8 *823:10 522.725 
5 *823:10 *823:16 33.7445 
6 *823:16 gpio_vtrip_sel[37] 28.4739 
*END

*D_NET *824 0.193516
*CONN
*P gpio_vtrip_sel[38] O
*I *874:gpio_vtrip_sel[38] O *D counter_gpio_config_example
*CAP
1 gpio_vtrip_sel[38] 0.00232741
2 *874:gpio_vtrip_sel[38] 0.00178267
3 *824:16 0.00921394
4 *824:10 0.0815181
5 *824:8 0.0764143
6 *824:8 *825:8 0.000234066
7 *824:8 *826:10 0.00015342
8 *824:8 *829:12 5.25168e-05
9 *824:10 *825:10 0
10 *824:16 *830:9 0.0151494
11 *122:177 *824:10 2.22781e-05
12 *476:11 *824:16 0
13 *705:29 *824:8 0.00223768
14 *740:16 *824:8 0.00406124
15 *779:16 *824:8 0.000349381
*RES
1 *874:gpio_vtrip_sel[38] *824:8 25.716 
2 *824:8 *824:10 221.935 
3 *824:10 *824:16 45.2077 
4 *824:16 gpio_vtrip_sel[38] 48.7925 
*END

*D_NET *825 0.237223
*CONN
*P gpio_vtrip_sel[39] O
*I *874:gpio_vtrip_sel[39] O *D counter_gpio_config_example
*CAP
1 gpio_vtrip_sel[39] 6.98413e-05
2 *874:gpio_vtrip_sel[39] 0.000645003
3 *825:18 0.00501695
4 *825:16 0.00494711
5 *825:14 0.0433742
6 *825:12 0.0433742
7 *825:10 0.0689018
8 *825:8 0.0695468
9 *825:8 *826:14 0.000495642
10 gpio_ib_mode_sel[39] *825:18 0
11 *205:17 *825:8 4.91347e-05
12 *429:13 *825:18 0
13 *696:14 *825:14 0
14 *705:29 *825:8 3.98645e-05
15 *740:16 *825:8 0.000527988
16 *824:8 *825:8 0.000234066
17 *824:10 *825:10 0
*RES
1 *874:gpio_vtrip_sel[39] *825:8 18.9325 
2 *825:8 *825:10 210.258 
3 *825:10 *825:12 8 
4 *825:12 *825:14 129.586 
5 *825:14 *825:16 8 
6 *825:16 *825:18 110.221 
7 *825:18 gpio_vtrip_sel[39] 1.68821 
*END

*D_NET *826 0.390652
*CONN
*P gpio_vtrip_sel[3] O
*I *874:gpio_vtrip_sel[3] O *D counter_gpio_config_example
*CAP
1 gpio_vtrip_sel[3] 0.00164706
2 *874:gpio_vtrip_sel[3] 0.00470552
3 *826:22 0.148122
4 *826:20 0.146475
5 *826:18 0.00573987
6 *826:16 0.00573987
7 *826:14 0.00931702
8 *826:12 0.00931702
9 *826:10 0.00470552
10 gpio_vtrip_sel[3] *833:13 0
11 gpio_ib_mode_sel[3] gpio_vtrip_sel[3] 0.00192265
12 gpio_ib_mode_sel[3] *826:22 0
13 gpio_oeb[3] *826:22 0.00055993
14 *874:gpio_in[38] *826:14 0.00103312
15 *205:17 *826:10 0.00168349
16 *230:9 *826:22 0
17 *281:13 *826:18 0
18 *286:13 *826:18 0.00162876
19 *398:11 *826:22 0.00101776
20 *410:19 *826:14 0.00221573
21 *430:19 *826:22 0
22 *444:11 *826:18 0.0153986
23 *694:17 *826:22 0
24 *703:177 *826:14 0.000122779
25 *705:29 *826:10 0.000496303
26 *740:16 *826:10 0.00295701
27 *740:16 *826:14 0.000456557
28 *740:18 *826:14 0.0209915
29 *823:6 *826:10 0.00374965
30 *824:8 *826:10 0.00015342
31 *825:8 *826:14 0.000495642
*RES
1 *874:gpio_vtrip_sel[3] *826:10 36.3242 
2 *826:10 *826:12 15 
3 *826:12 *826:14 273.615 
4 *826:14 *826:16 15 
5 *826:16 *826:18 197.521 
6 *826:18 *826:20 8 
7 *826:20 *826:22 429.389 
8 *826:22 gpio_vtrip_sel[3] 25.745 
*END

*D_NET *827 0.210986
*CONN
*P gpio_vtrip_sel[40] O
*I *874:gpio_vtrip_sel[40] O *D counter_gpio_config_example
*CAP
1 gpio_vtrip_sel[40] 0.000279794
2 *874:gpio_vtrip_sel[40] 0.000769628
3 *827:13 0.0106429
4 *827:11 0.0103631
5 *827:9 0.0353092
6 *827:7 0.0360788
7 gpio_out[40] *827:13 0
8 *155:21 *827:9 0.0410252
9 *212:13 gpio_vtrip_sel[40] 0.000208859
10 *462:19 *827:9 0.0146669
11 *529:13 *827:9 0.0353258
12 *674:9 *827:9 0.0263158
13 *692:5 *827:7 0
*RES
1 *874:gpio_vtrip_sel[40] *827:7 20.0454 
2 *827:7 *827:9 189.907 
3 *827:9 *827:11 8 
4 *827:11 *827:13 232.062 
5 *827:13 gpio_vtrip_sel[40] 6.76321 
*END

*D_NET *828 0.304856
*CONN
*P gpio_vtrip_sel[41] O
*I *874:gpio_vtrip_sel[41] O *D counter_gpio_config_example
*CAP
1 gpio_vtrip_sel[41] 0.000340086
2 *874:gpio_vtrip_sel[41] 0.0105815
3 *828:13 0.0672924
4 *828:11 0.0678307
5 *828:5 0.0114598
6 *828:13 *873:13 0.00633506
7 gpio_dm0[41] *828:13 0.000436827
8 *257:17 *828:13 0.0033064
9 *300:21 *828:13 0.00336322
10 *340:17 *828:11 0.000389618
11 *340:17 *828:13 0.00499536
12 *344:35 *828:13 0.00315528
13 *345:17 gpio_vtrip_sel[41] 4.77164e-06
14 *432:23 gpio_vtrip_sel[41] 0
15 *433:22 *828:11 0.000293929
16 *433:22 *828:13 0.0214112
17 *478:9 *828:13 0
18 *739:9 *828:13 0.10366
19 *798:11 *828:5 0
*RES
1 *874:gpio_vtrip_sel[41] *828:5 237.417 
2 *828:5 *828:11 10.8579 
3 *828:11 *828:13 272.382 
4 *828:13 gpio_vtrip_sel[41] 15.8196 
*END

*D_NET *829 0.517941
*CONN
*P gpio_vtrip_sel[42] O
*I *874:gpio_vtrip_sel[42] O *D counter_gpio_config_example
*CAP
1 gpio_vtrip_sel[42] 0.000208823
2 *874:gpio_vtrip_sel[42] 0.000854826
3 *829:18 0.0816717
4 *829:16 0.232372
5 *829:12 0.151764
6 gpio_ib_mode_sel[42] gpio_vtrip_sel[42] 9.33401e-06
7 *104:27 *829:16 0.0032466
8 *117:17 *829:16 0.000535818
9 *215:31 *829:16 9.66335e-05
10 *293:17 *829:16 0.00134729
11 *337:17 *829:16 0.0019044
12 *338:17 *829:16 0.00106132
13 *381:17 *829:16 0.00040569
14 *427:17 *829:16 0.00072734
15 *557:17 *829:16 0.0019044
16 *705:29 *829:12 4.93791e-05
17 *705:29 *829:16 0.0110778
18 *742:9 *829:16 0.013315
19 *743:17 *829:16 0.00704849
20 *779:16 *829:16 0.00329412
21 *781:17 *829:16 0.00154994
22 *783:13 *829:16 0.00321523
23 *787:9 *829:16 0.000228852
24 *824:8 *829:12 5.25168e-05
*RES
1 *874:gpio_vtrip_sel[42] *829:12 18.5691 
2 *829:12 *829:16 36.0448 
3 *829:16 *829:18 231.836 
4 *829:18 gpio_vtrip_sel[42] 17.4562 
*END

*D_NET *830 0.295929
*CONN
*P gpio_vtrip_sel[43] O
*I *874:gpio_vtrip_sel[43] O *D counter_gpio_config_example
*CAP
1 gpio_vtrip_sel[43] 0.00134188
2 *874:gpio_vtrip_sel[43] 0.00933982
3 *830:11 0.00134188
4 *830:9 0.107943
5 *830:7 0.107943
6 *830:5 0.00933982
7 *121:17 *830:9 0.0399456
8 *434:21 gpio_vtrip_sel[43] 0.00358438
9 *476:11 *830:9 0
10 *690:11 *830:5 0
11 *784:34 *830:9 0
12 *813:7 *830:5 0
13 *824:16 *830:9 0.0151494
*RES
1 *874:gpio_vtrip_sel[43] *830:5 197.977 
2 *830:5 *830:7 8 
3 *830:7 *830:9 351.766 
4 *830:9 *830:11 8 
5 *830:11 gpio_vtrip_sel[43] 46.0582 
*END

*D_NET *831 0.76721
*CONN
*P gpio_vtrip_sel[4] O
*I *874:gpio_vtrip_sel[4] O *D counter_gpio_config_example
*CAP
1 gpio_vtrip_sel[4] 0.00481021
2 *874:gpio_vtrip_sel[4] 0.00135541
3 *831:13 0.0534989
4 *831:11 0.0486887
5 *831:9 0.0741036
6 *831:7 0.075459
7 *699:9 gpio_vtrip_sel[4] 0
8 *711:17 *831:9 0.0447212
9 *714:19 *831:9 0.000324675
10 *743:17 gpio_vtrip_sel[4] 0.0018622
11 *744:7 *831:7 0
12 *744:9 *831:9 0.262245
13 *756:9 *831:9 0.200142
14 *794:7 *831:7 0
*RES
1 *874:gpio_vtrip_sel[4] *831:7 32.0182 
2 *831:7 *831:9 493.446 
3 *831:9 *831:11 8 
4 *831:11 *831:13 1081.22 
5 *831:13 gpio_vtrip_sel[4] 20.9873 
*END

*D_NET *832 0.567446
*CONN
*P gpio_vtrip_sel[5] O
*I *874:gpio_vtrip_sel[5] O *D counter_gpio_config_example
*CAP
1 gpio_vtrip_sel[5] 0.00221517
2 *874:gpio_vtrip_sel[5] 0.00117013
3 *832:13 0.0612784
4 *832:11 0.0590633
5 *832:9 0.102841
6 *832:7 0.104011
7 *832:9 *833:9 0.090845
8 gpio_ib_mode_sel[5] gpio_vtrip_sel[5] 0.0014004
9 *208:38 *832:9 0.00110787
10 *389:13 *832:9 0
11 *529:13 *832:9 0
12 *564:10 *832:9 0.0577911
13 *701:9 *832:9 0
14 *702:9 *832:9 0.0321406
15 *713:9 *832:9 0.0344855
16 *714:19 *832:9 0.0190963
17 *741:5 *832:7 0
18 *785:5 *832:7 0
*RES
1 *874:gpio_vtrip_sel[5] *832:7 28.4968 
2 *832:7 *832:9 513.109 
3 *832:9 *832:11 8 
4 *832:11 *832:13 1314.34 
5 *832:13 gpio_vtrip_sel[5] 13.8977 
*END

*D_NET *833 0.705022
*CONN
*P gpio_vtrip_sel[6] O
*I *874:gpio_vtrip_sel[6] O *D counter_gpio_config_example
*CAP
1 gpio_vtrip_sel[6] 0.00124137
2 *874:gpio_vtrip_sel[6] 0.00126096
3 *833:13 0.0709774
4 *833:11 0.069736
5 *833:9 0.0845323
6 *833:7 0.0857933
7 gpio_analog_en[4] *833:13 0
8 gpio_dm0[1] *833:13 0
9 gpio_dm0[2] *833:13 0
10 gpio_dm0[3] *833:13 0
11 gpio_dm0[4] *833:13 0
12 gpio_dm0[5] *833:13 0
13 gpio_dm2[2] *833:13 0
14 gpio_ib_mode_sel[6] gpio_vtrip_sel[6] 0.000760506
15 gpio_out[2] *833:13 0
16 gpio_out[3] *833:13 0
17 gpio_vtrip_sel[3] *833:13 0
18 *208:38 *833:9 0.00221817
19 *389:13 *833:9 0.000311962
20 *529:17 *833:13 0
21 *711:17 *833:9 0.0313958
22 *714:19 *833:9 0.000432446
23 *744:9 *833:9 0.265276
24 *756:9 *833:9 0.000240519
25 *820:7 *833:7 0
26 *832:9 *833:9 0.090845
*RES
1 *874:gpio_vtrip_sel[6] *833:7 30.6096 
2 *833:7 *833:9 507.27 
3 *833:9 *833:11 8 
4 *833:11 *833:13 1550.98 
5 *833:13 gpio_vtrip_sel[6] 11.2396 
*END

*D_NET *834 0.523778
*CONN
*P gpio_vtrip_sel[7] O
*I *874:gpio_vtrip_sel[7] O *D counter_gpio_config_example
*CAP
1 gpio_vtrip_sel[7] 0.0125803
2 *874:gpio_vtrip_sel[7] 0.0258521
3 *834:15 0.0125803
4 *834:13 0.0362871
5 *834:11 0.0362871
6 *834:9 0.149948
7 *834:7 0.149948
8 *834:5 0.0258521
9 gpio_ib_mode_sel[7] gpio_vtrip_sel[7] 0.00023818
10 gpio_oeb[7] gpio_vtrip_sel[7] 0
11 *422:17 *834:9 0.0293684
12 *438:13 gpio_vtrip_sel[7] 0.0215421
13 *667:13 *834:13 0
14 *711:21 *834:13 0.023295
15 *719:5 *834:5 0
16 *722:5 *834:5 0
*RES
1 *874:gpio_vtrip_sel[7] *834:5 561.388 
2 *834:5 *834:7 8 
3 *834:7 *834:9 450.341 
4 *834:9 *834:11 8 
5 *834:11 *834:13 848.105 
6 *834:13 *834:15 8 
7 *834:15 gpio_vtrip_sel[7] 46.1169 
*END

*D_NET *835 0.693091
*CONN
*P gpio_vtrip_sel[8] O
*I *874:gpio_vtrip_sel[8] O *D counter_gpio_config_example
*CAP
1 gpio_vtrip_sel[8] 0.00320568
2 *874:gpio_vtrip_sel[8] 0.000124527
3 *835:21 0.0289098
4 *835:19 0.0257042
5 *835:17 0.172921
6 *835:15 0.172921
7 *835:13 0.105568
8 *835:11 0.105693
9 gpio_holdover[22] *835:13 0.00353919
10 gpio_ib_mode_sel[8] gpio_vtrip_sel[8] 0.000925298
11 gpio_oeb[8] gpio_vtrip_sel[8] 0
12 *439:13 gpio_vtrip_sel[8] 0.00285912
13 *483:11 *835:21 0.0678118
14 *484:11 *835:21 0.00288341
15 *690:13 *835:11 2.60531e-05
16 *696:10 *835:13 0
17 *744:7 *835:11 0
18 *799:9 *835:17 0
19 *807:13 *835:13 0
*RES
1 *874:gpio_vtrip_sel[8] *835:11 17.58 
2 *835:11 *835:13 314.978 
3 *835:13 *835:15 8 
4 *835:15 *835:17 497.353 
5 *835:17 *835:19 8 
6 *835:19 *835:21 934.028 
7 *835:21 gpio_vtrip_sel[8] 17.5452 
*END

*D_NET *836 0.705201
*CONN
*P gpio_vtrip_sel[9] O
*I *874:gpio_vtrip_sel[9] O *D counter_gpio_config_example
*CAP
1 gpio_vtrip_sel[9] 0.000258041
2 *874:gpio_vtrip_sel[9] 0.000641831
3 *836:17 0.165486
4 *836:15 0.165228
5 *836:13 0.157065
6 *836:11 0.157707
7 gpio_holdover[9] *836:17 0
8 *440:13 *836:17 0
9 *683:9 *836:11 0.000450676
10 *702:7 *836:11 0
11 *725:13 *836:13 0.0335017
12 *748:17 *836:17 0
13 *767:5 *836:13 0.0248619
*RES
1 *874:gpio_vtrip_sel[9] *836:11 19.2973 
2 *836:11 *836:13 524.418 
3 *836:13 *836:15 8 
4 *836:15 *836:17 479.763 
5 *836:17 gpio_vtrip_sel[9] 0.990267 
*END

*D_NET *873 0.0360216
*CONN
*P resetb_l I
*I *874:resetb_l I *D counter_gpio_config_example
*CAP
1 resetb_l 0.00348637
2 *874:resetb_l 0.0106558
3 *873:13 0.0141422
4 *433:22 *873:13 0.00140221
5 *728:11 *874:resetb_l 0
6 *828:13 *873:13 0.00633506
*RES
1 resetb_l *873:13 36.5555 
2 *873:13 *874:resetb_l 237.417 
*END
