*SPEF "ieee 1481-1999"
*DESIGN "openframe_project_wrapper"
*DATE "04:57:44 Monday February 09, 2026"
*VENDOR "The OpenROAD Project"
*PROGRAM "OpenROAD"
*VERSION "edf00dff99f6c40d67a30c0e22a8191c5d2ed9d6"
*DESIGN_FLOW "NAME_SCOPE LOCAL" "PIN_CAP NONE"
*DIVIDER /
*DELIMITER :
*BUS_DELIMITER []
*T_UNIT 1 NS
*C_UNIT 1 PF
*R_UNIT 1 OHM
*L_UNIT 1 HENRY

*NAME_MAP
*1 analog_io[0]
*2 analog_io[10]
*3 analog_io[11]
*4 analog_io[12]
*5 analog_io[13]
*6 analog_io[14]
*7 analog_io[15]
*8 analog_io[16]
*9 analog_io[17]
*10 analog_io[18]
*11 analog_io[19]
*12 analog_io[1]
*13 analog_io[20]
*14 analog_io[21]
*15 analog_io[22]
*16 analog_io[23]
*17 analog_io[24]
*18 analog_io[25]
*19 analog_io[26]
*20 analog_io[27]
*21 analog_io[28]
*22 analog_io[29]
*23 analog_io[2]
*24 analog_io[30]
*25 analog_io[31]
*26 analog_io[32]
*27 analog_io[33]
*28 analog_io[34]
*29 analog_io[35]
*30 analog_io[36]
*31 analog_io[37]
*32 analog_io[38]
*33 analog_io[39]
*34 analog_io[3]
*35 analog_io[40]
*36 analog_io[41]
*37 analog_io[42]
*38 analog_io[43]
*39 analog_io[4]
*40 analog_io[5]
*41 analog_io[6]
*42 analog_io[7]
*43 analog_io[8]
*44 analog_io[9]
*45 analog_noesd_io[0]
*46 analog_noesd_io[10]
*47 analog_noesd_io[11]
*48 analog_noesd_io[12]
*49 analog_noesd_io[13]
*50 analog_noesd_io[14]
*51 analog_noesd_io[15]
*52 analog_noesd_io[16]
*53 analog_noesd_io[17]
*54 analog_noesd_io[18]
*55 analog_noesd_io[19]
*56 analog_noesd_io[1]
*57 analog_noesd_io[20]
*58 analog_noesd_io[21]
*59 analog_noesd_io[22]
*60 analog_noesd_io[23]
*61 analog_noesd_io[24]
*62 analog_noesd_io[25]
*63 analog_noesd_io[26]
*64 analog_noesd_io[27]
*65 analog_noesd_io[28]
*66 analog_noesd_io[29]
*67 analog_noesd_io[2]
*68 analog_noesd_io[30]
*69 analog_noesd_io[31]
*70 analog_noesd_io[32]
*71 analog_noesd_io[33]
*72 analog_noesd_io[34]
*73 analog_noesd_io[35]
*74 analog_noesd_io[36]
*75 analog_noesd_io[37]
*76 analog_noesd_io[38]
*77 analog_noesd_io[39]
*78 analog_noesd_io[3]
*79 analog_noesd_io[40]
*80 analog_noesd_io[41]
*81 analog_noesd_io[42]
*82 analog_noesd_io[43]
*83 analog_noesd_io[4]
*84 analog_noesd_io[5]
*85 analog_noesd_io[6]
*86 analog_noesd_io[7]
*87 analog_noesd_io[8]
*88 analog_noesd_io[9]
*89 gpio_analog_en[0]
*90 gpio_analog_en[10]
*91 gpio_analog_en[11]
*92 gpio_analog_en[12]
*93 gpio_analog_en[13]
*94 gpio_analog_en[14]
*95 gpio_analog_en[15]
*96 gpio_analog_en[16]
*97 gpio_analog_en[17]
*98 gpio_analog_en[18]
*99 gpio_analog_en[19]
*100 gpio_analog_en[1]
*101 gpio_analog_en[20]
*102 gpio_analog_en[21]
*103 gpio_analog_en[22]
*104 gpio_analog_en[23]
*105 gpio_analog_en[24]
*106 gpio_analog_en[25]
*107 gpio_analog_en[26]
*108 gpio_analog_en[27]
*109 gpio_analog_en[28]
*110 gpio_analog_en[29]
*111 gpio_analog_en[2]
*112 gpio_analog_en[30]
*113 gpio_analog_en[31]
*114 gpio_analog_en[32]
*115 gpio_analog_en[33]
*116 gpio_analog_en[34]
*117 gpio_analog_en[35]
*118 gpio_analog_en[36]
*119 gpio_analog_en[37]
*120 gpio_analog_en[38]
*121 gpio_analog_en[39]
*122 gpio_analog_en[3]
*123 gpio_analog_en[40]
*124 gpio_analog_en[41]
*125 gpio_analog_en[42]
*126 gpio_analog_en[43]
*127 gpio_analog_en[4]
*128 gpio_analog_en[5]
*129 gpio_analog_en[6]
*130 gpio_analog_en[7]
*131 gpio_analog_en[8]
*132 gpio_analog_en[9]
*133 gpio_analog_pol[0]
*134 gpio_analog_pol[10]
*135 gpio_analog_pol[11]
*136 gpio_analog_pol[12]
*137 gpio_analog_pol[13]
*138 gpio_analog_pol[14]
*139 gpio_analog_pol[15]
*140 gpio_analog_pol[16]
*141 gpio_analog_pol[17]
*142 gpio_analog_pol[18]
*143 gpio_analog_pol[19]
*144 gpio_analog_pol[1]
*145 gpio_analog_pol[20]
*146 gpio_analog_pol[21]
*147 gpio_analog_pol[22]
*148 gpio_analog_pol[23]
*149 gpio_analog_pol[24]
*150 gpio_analog_pol[25]
*151 gpio_analog_pol[26]
*152 gpio_analog_pol[27]
*153 gpio_analog_pol[28]
*154 gpio_analog_pol[29]
*155 gpio_analog_pol[2]
*156 gpio_analog_pol[30]
*157 gpio_analog_pol[31]
*158 gpio_analog_pol[32]
*159 gpio_analog_pol[33]
*160 gpio_analog_pol[34]
*161 gpio_analog_pol[35]
*162 gpio_analog_pol[36]
*163 gpio_analog_pol[37]
*164 gpio_analog_pol[38]
*165 gpio_analog_pol[39]
*166 gpio_analog_pol[3]
*167 gpio_analog_pol[40]
*168 gpio_analog_pol[41]
*169 gpio_analog_pol[42]
*170 gpio_analog_pol[43]
*171 gpio_analog_pol[4]
*172 gpio_analog_pol[5]
*173 gpio_analog_pol[6]
*174 gpio_analog_pol[7]
*175 gpio_analog_pol[8]
*176 gpio_analog_pol[9]
*177 gpio_analog_sel[0]
*178 gpio_analog_sel[10]
*179 gpio_analog_sel[11]
*180 gpio_analog_sel[12]
*181 gpio_analog_sel[13]
*182 gpio_analog_sel[14]
*183 gpio_analog_sel[15]
*184 gpio_analog_sel[16]
*185 gpio_analog_sel[17]
*186 gpio_analog_sel[18]
*187 gpio_analog_sel[19]
*188 gpio_analog_sel[1]
*189 gpio_analog_sel[20]
*190 gpio_analog_sel[21]
*191 gpio_analog_sel[22]
*192 gpio_analog_sel[23]
*193 gpio_analog_sel[24]
*194 gpio_analog_sel[25]
*195 gpio_analog_sel[26]
*196 gpio_analog_sel[27]
*197 gpio_analog_sel[28]
*198 gpio_analog_sel[29]
*199 gpio_analog_sel[2]
*200 gpio_analog_sel[30]
*201 gpio_analog_sel[31]
*202 gpio_analog_sel[32]
*203 gpio_analog_sel[33]
*204 gpio_analog_sel[34]
*205 gpio_analog_sel[35]
*206 gpio_analog_sel[36]
*207 gpio_analog_sel[37]
*208 gpio_analog_sel[38]
*209 gpio_analog_sel[39]
*210 gpio_analog_sel[3]
*211 gpio_analog_sel[40]
*212 gpio_analog_sel[41]
*213 gpio_analog_sel[42]
*214 gpio_analog_sel[43]
*215 gpio_analog_sel[4]
*216 gpio_analog_sel[5]
*217 gpio_analog_sel[6]
*218 gpio_analog_sel[7]
*219 gpio_analog_sel[8]
*220 gpio_analog_sel[9]
*221 gpio_dm0[0]
*222 gpio_dm0[10]
*223 gpio_dm0[11]
*224 gpio_dm0[12]
*225 gpio_dm0[13]
*226 gpio_dm0[14]
*227 gpio_dm0[15]
*228 gpio_dm0[16]
*229 gpio_dm0[17]
*230 gpio_dm0[18]
*231 gpio_dm0[19]
*232 gpio_dm0[1]
*233 gpio_dm0[20]
*234 gpio_dm0[21]
*235 gpio_dm0[22]
*236 gpio_dm0[23]
*237 gpio_dm0[24]
*238 gpio_dm0[25]
*239 gpio_dm0[26]
*240 gpio_dm0[27]
*241 gpio_dm0[28]
*242 gpio_dm0[29]
*243 gpio_dm0[2]
*244 gpio_dm0[30]
*245 gpio_dm0[31]
*246 gpio_dm0[32]
*247 gpio_dm0[33]
*248 gpio_dm0[34]
*249 gpio_dm0[35]
*250 gpio_dm0[36]
*251 gpio_dm0[37]
*252 gpio_dm0[38]
*253 gpio_dm0[39]
*254 gpio_dm0[3]
*255 gpio_dm0[40]
*256 gpio_dm0[41]
*257 gpio_dm0[42]
*258 gpio_dm0[43]
*259 gpio_dm0[4]
*260 gpio_dm0[5]
*261 gpio_dm0[6]
*262 gpio_dm0[7]
*263 gpio_dm0[8]
*264 gpio_dm0[9]
*265 gpio_dm1[0]
*266 gpio_dm1[10]
*267 gpio_dm1[11]
*268 gpio_dm1[12]
*269 gpio_dm1[13]
*270 gpio_dm1[14]
*271 gpio_dm1[15]
*272 gpio_dm1[16]
*273 gpio_dm1[17]
*274 gpio_dm1[18]
*275 gpio_dm1[19]
*276 gpio_dm1[1]
*277 gpio_dm1[20]
*278 gpio_dm1[21]
*279 gpio_dm1[22]
*280 gpio_dm1[23]
*281 gpio_dm1[24]
*282 gpio_dm1[25]
*283 gpio_dm1[26]
*284 gpio_dm1[27]
*285 gpio_dm1[28]
*286 gpio_dm1[29]
*287 gpio_dm1[2]
*288 gpio_dm1[30]
*289 gpio_dm1[31]
*290 gpio_dm1[32]
*291 gpio_dm1[33]
*292 gpio_dm1[34]
*293 gpio_dm1[35]
*294 gpio_dm1[36]
*295 gpio_dm1[37]
*296 gpio_dm1[38]
*297 gpio_dm1[39]
*298 gpio_dm1[3]
*299 gpio_dm1[40]
*300 gpio_dm1[41]
*301 gpio_dm1[42]
*302 gpio_dm1[43]
*303 gpio_dm1[4]
*304 gpio_dm1[5]
*305 gpio_dm1[6]
*306 gpio_dm1[7]
*307 gpio_dm1[8]
*308 gpio_dm1[9]
*309 gpio_dm2[0]
*310 gpio_dm2[10]
*311 gpio_dm2[11]
*312 gpio_dm2[12]
*313 gpio_dm2[13]
*314 gpio_dm2[14]
*315 gpio_dm2[15]
*316 gpio_dm2[16]
*317 gpio_dm2[17]
*318 gpio_dm2[18]
*319 gpio_dm2[19]
*320 gpio_dm2[1]
*321 gpio_dm2[20]
*322 gpio_dm2[21]
*323 gpio_dm2[22]
*324 gpio_dm2[23]
*325 gpio_dm2[24]
*326 gpio_dm2[25]
*327 gpio_dm2[26]
*328 gpio_dm2[27]
*329 gpio_dm2[28]
*330 gpio_dm2[29]
*331 gpio_dm2[2]
*332 gpio_dm2[30]
*333 gpio_dm2[31]
*334 gpio_dm2[32]
*335 gpio_dm2[33]
*336 gpio_dm2[34]
*337 gpio_dm2[35]
*338 gpio_dm2[36]
*339 gpio_dm2[37]
*340 gpio_dm2[38]
*341 gpio_dm2[39]
*342 gpio_dm2[3]
*343 gpio_dm2[40]
*344 gpio_dm2[41]
*345 gpio_dm2[42]
*346 gpio_dm2[43]
*347 gpio_dm2[4]
*348 gpio_dm2[5]
*349 gpio_dm2[6]
*350 gpio_dm2[7]
*351 gpio_dm2[8]
*352 gpio_dm2[9]
*353 gpio_holdover[0]
*354 gpio_holdover[10]
*355 gpio_holdover[11]
*356 gpio_holdover[12]
*357 gpio_holdover[13]
*358 gpio_holdover[14]
*359 gpio_holdover[15]
*360 gpio_holdover[16]
*361 gpio_holdover[17]
*362 gpio_holdover[18]
*363 gpio_holdover[19]
*364 gpio_holdover[1]
*365 gpio_holdover[20]
*366 gpio_holdover[21]
*367 gpio_holdover[22]
*368 gpio_holdover[23]
*369 gpio_holdover[24]
*370 gpio_holdover[25]
*371 gpio_holdover[26]
*372 gpio_holdover[27]
*373 gpio_holdover[28]
*374 gpio_holdover[29]
*375 gpio_holdover[2]
*376 gpio_holdover[30]
*377 gpio_holdover[31]
*378 gpio_holdover[32]
*379 gpio_holdover[33]
*380 gpio_holdover[34]
*381 gpio_holdover[35]
*382 gpio_holdover[36]
*383 gpio_holdover[37]
*384 gpio_holdover[38]
*385 gpio_holdover[39]
*386 gpio_holdover[3]
*387 gpio_holdover[40]
*388 gpio_holdover[41]
*389 gpio_holdover[42]
*390 gpio_holdover[43]
*391 gpio_holdover[4]
*392 gpio_holdover[5]
*393 gpio_holdover[6]
*394 gpio_holdover[7]
*395 gpio_holdover[8]
*396 gpio_holdover[9]
*397 gpio_ib_mode_sel[0]
*398 gpio_ib_mode_sel[10]
*399 gpio_ib_mode_sel[11]
*400 gpio_ib_mode_sel[12]
*401 gpio_ib_mode_sel[13]
*402 gpio_ib_mode_sel[14]
*403 gpio_ib_mode_sel[15]
*404 gpio_ib_mode_sel[16]
*405 gpio_ib_mode_sel[17]
*406 gpio_ib_mode_sel[18]
*407 gpio_ib_mode_sel[19]
*408 gpio_ib_mode_sel[1]
*409 gpio_ib_mode_sel[20]
*410 gpio_ib_mode_sel[21]
*411 gpio_ib_mode_sel[22]
*412 gpio_ib_mode_sel[23]
*413 gpio_ib_mode_sel[24]
*414 gpio_ib_mode_sel[25]
*415 gpio_ib_mode_sel[26]
*416 gpio_ib_mode_sel[27]
*417 gpio_ib_mode_sel[28]
*418 gpio_ib_mode_sel[29]
*419 gpio_ib_mode_sel[2]
*420 gpio_ib_mode_sel[30]
*421 gpio_ib_mode_sel[31]
*422 gpio_ib_mode_sel[32]
*423 gpio_ib_mode_sel[33]
*424 gpio_ib_mode_sel[34]
*425 gpio_ib_mode_sel[35]
*426 gpio_ib_mode_sel[36]
*427 gpio_ib_mode_sel[37]
*428 gpio_ib_mode_sel[38]
*429 gpio_ib_mode_sel[39]
*430 gpio_ib_mode_sel[3]
*431 gpio_ib_mode_sel[40]
*432 gpio_ib_mode_sel[41]
*433 gpio_ib_mode_sel[42]
*434 gpio_ib_mode_sel[43]
*435 gpio_ib_mode_sel[4]
*436 gpio_ib_mode_sel[5]
*437 gpio_ib_mode_sel[6]
*438 gpio_ib_mode_sel[7]
*439 gpio_ib_mode_sel[8]
*440 gpio_ib_mode_sel[9]
*441 gpio_in[0]
*442 gpio_in[10]
*443 gpio_in[11]
*444 gpio_in[12]
*445 gpio_in[13]
*446 gpio_in[14]
*447 gpio_in[15]
*448 gpio_in[16]
*449 gpio_in[17]
*450 gpio_in[18]
*451 gpio_in[19]
*452 gpio_in[1]
*453 gpio_in[20]
*454 gpio_in[21]
*455 gpio_in[22]
*456 gpio_in[23]
*457 gpio_in[24]
*458 gpio_in[25]
*459 gpio_in[26]
*460 gpio_in[27]
*461 gpio_in[28]
*462 gpio_in[29]
*463 gpio_in[2]
*464 gpio_in[30]
*465 gpio_in[31]
*466 gpio_in[32]
*467 gpio_in[33]
*468 gpio_in[34]
*469 gpio_in[35]
*470 gpio_in[36]
*471 gpio_in[37]
*472 gpio_in[38]
*473 gpio_in[39]
*474 gpio_in[3]
*475 gpio_in[40]
*476 gpio_in[41]
*477 gpio_in[42]
*478 gpio_in[43]
*479 gpio_in[4]
*480 gpio_in[5]
*481 gpio_in[6]
*482 gpio_in[7]
*483 gpio_in[8]
*484 gpio_in[9]
*485 gpio_in_h[0]
*486 gpio_in_h[10]
*487 gpio_in_h[11]
*488 gpio_in_h[12]
*489 gpio_in_h[13]
*490 gpio_in_h[14]
*491 gpio_in_h[15]
*492 gpio_in_h[16]
*493 gpio_in_h[17]
*494 gpio_in_h[18]
*495 gpio_in_h[19]
*496 gpio_in_h[1]
*497 gpio_in_h[20]
*498 gpio_in_h[21]
*499 gpio_in_h[22]
*500 gpio_in_h[23]
*501 gpio_in_h[24]
*502 gpio_in_h[25]
*503 gpio_in_h[26]
*504 gpio_in_h[27]
*505 gpio_in_h[28]
*506 gpio_in_h[29]
*507 gpio_in_h[2]
*508 gpio_in_h[30]
*509 gpio_in_h[31]
*510 gpio_in_h[32]
*511 gpio_in_h[33]
*512 gpio_in_h[34]
*513 gpio_in_h[35]
*514 gpio_in_h[36]
*515 gpio_in_h[37]
*516 gpio_in_h[38]
*517 gpio_in_h[39]
*518 gpio_in_h[3]
*519 gpio_in_h[40]
*520 gpio_in_h[41]
*521 gpio_in_h[42]
*522 gpio_in_h[43]
*523 gpio_in_h[4]
*524 gpio_in_h[5]
*525 gpio_in_h[6]
*526 gpio_in_h[7]
*527 gpio_in_h[8]
*528 gpio_in_h[9]
*529 gpio_inp_dis[0]
*530 gpio_inp_dis[10]
*531 gpio_inp_dis[11]
*532 gpio_inp_dis[12]
*533 gpio_inp_dis[13]
*534 gpio_inp_dis[14]
*535 gpio_inp_dis[15]
*536 gpio_inp_dis[16]
*537 gpio_inp_dis[17]
*538 gpio_inp_dis[18]
*539 gpio_inp_dis[19]
*540 gpio_inp_dis[1]
*541 gpio_inp_dis[20]
*542 gpio_inp_dis[21]
*543 gpio_inp_dis[22]
*544 gpio_inp_dis[23]
*545 gpio_inp_dis[24]
*546 gpio_inp_dis[25]
*547 gpio_inp_dis[26]
*548 gpio_inp_dis[27]
*549 gpio_inp_dis[28]
*550 gpio_inp_dis[29]
*551 gpio_inp_dis[2]
*552 gpio_inp_dis[30]
*553 gpio_inp_dis[31]
*554 gpio_inp_dis[32]
*555 gpio_inp_dis[33]
*556 gpio_inp_dis[34]
*557 gpio_inp_dis[35]
*558 gpio_inp_dis[36]
*559 gpio_inp_dis[37]
*560 gpio_inp_dis[38]
*561 gpio_inp_dis[39]
*562 gpio_inp_dis[3]
*563 gpio_inp_dis[40]
*564 gpio_inp_dis[41]
*565 gpio_inp_dis[42]
*566 gpio_inp_dis[43]
*567 gpio_inp_dis[4]
*568 gpio_inp_dis[5]
*569 gpio_inp_dis[6]
*570 gpio_inp_dis[7]
*571 gpio_inp_dis[8]
*572 gpio_inp_dis[9]
*573 gpio_loopback_one[0]
*574 gpio_loopback_one[10]
*575 gpio_loopback_one[11]
*576 gpio_loopback_one[12]
*577 gpio_loopback_one[13]
*578 gpio_loopback_one[14]
*579 gpio_loopback_one[15]
*580 gpio_loopback_one[16]
*581 gpio_loopback_one[17]
*582 gpio_loopback_one[18]
*583 gpio_loopback_one[19]
*584 gpio_loopback_one[1]
*585 gpio_loopback_one[20]
*586 gpio_loopback_one[21]
*587 gpio_loopback_one[22]
*588 gpio_loopback_one[23]
*589 gpio_loopback_one[24]
*590 gpio_loopback_one[25]
*591 gpio_loopback_one[26]
*592 gpio_loopback_one[27]
*593 gpio_loopback_one[28]
*594 gpio_loopback_one[29]
*595 gpio_loopback_one[2]
*596 gpio_loopback_one[30]
*597 gpio_loopback_one[31]
*598 gpio_loopback_one[32]
*599 gpio_loopback_one[33]
*600 gpio_loopback_one[34]
*601 gpio_loopback_one[35]
*602 gpio_loopback_one[36]
*603 gpio_loopback_one[37]
*604 gpio_loopback_one[38]
*605 gpio_loopback_one[39]
*606 gpio_loopback_one[3]
*607 gpio_loopback_one[40]
*608 gpio_loopback_one[41]
*609 gpio_loopback_one[42]
*610 gpio_loopback_one[43]
*611 gpio_loopback_one[4]
*612 gpio_loopback_one[5]
*613 gpio_loopback_one[6]
*614 gpio_loopback_one[7]
*615 gpio_loopback_one[8]
*616 gpio_loopback_one[9]
*617 gpio_loopback_zero[0]
*618 gpio_loopback_zero[10]
*619 gpio_loopback_zero[11]
*620 gpio_loopback_zero[12]
*621 gpio_loopback_zero[13]
*622 gpio_loopback_zero[14]
*623 gpio_loopback_zero[15]
*624 gpio_loopback_zero[16]
*625 gpio_loopback_zero[17]
*626 gpio_loopback_zero[18]
*627 gpio_loopback_zero[19]
*628 gpio_loopback_zero[1]
*629 gpio_loopback_zero[20]
*630 gpio_loopback_zero[21]
*631 gpio_loopback_zero[22]
*632 gpio_loopback_zero[23]
*633 gpio_loopback_zero[24]
*634 gpio_loopback_zero[25]
*635 gpio_loopback_zero[26]
*636 gpio_loopback_zero[27]
*637 gpio_loopback_zero[28]
*638 gpio_loopback_zero[29]
*639 gpio_loopback_zero[2]
*640 gpio_loopback_zero[30]
*641 gpio_loopback_zero[31]
*642 gpio_loopback_zero[32]
*643 gpio_loopback_zero[33]
*644 gpio_loopback_zero[34]
*645 gpio_loopback_zero[35]
*646 gpio_loopback_zero[36]
*647 gpio_loopback_zero[37]
*648 gpio_loopback_zero[38]
*649 gpio_loopback_zero[39]
*650 gpio_loopback_zero[3]
*651 gpio_loopback_zero[40]
*652 gpio_loopback_zero[41]
*653 gpio_loopback_zero[42]
*654 gpio_loopback_zero[43]
*655 gpio_loopback_zero[4]
*656 gpio_loopback_zero[5]
*657 gpio_loopback_zero[6]
*658 gpio_loopback_zero[7]
*659 gpio_loopback_zero[8]
*660 gpio_loopback_zero[9]
*661 gpio_oeb[0]
*662 gpio_oeb[10]
*663 gpio_oeb[11]
*664 gpio_oeb[12]
*665 gpio_oeb[13]
*666 gpio_oeb[14]
*667 gpio_oeb[15]
*668 gpio_oeb[16]
*669 gpio_oeb[17]
*670 gpio_oeb[18]
*671 gpio_oeb[19]
*672 gpio_oeb[1]
*673 gpio_oeb[20]
*674 gpio_oeb[21]
*675 gpio_oeb[22]
*676 gpio_oeb[23]
*677 gpio_oeb[24]
*678 gpio_oeb[25]
*679 gpio_oeb[26]
*680 gpio_oeb[27]
*681 gpio_oeb[28]
*682 gpio_oeb[29]
*683 gpio_oeb[2]
*684 gpio_oeb[30]
*685 gpio_oeb[31]
*686 gpio_oeb[32]
*687 gpio_oeb[33]
*688 gpio_oeb[34]
*689 gpio_oeb[35]
*690 gpio_oeb[36]
*691 gpio_oeb[37]
*692 gpio_oeb[38]
*693 gpio_oeb[39]
*694 gpio_oeb[3]
*695 gpio_oeb[40]
*696 gpio_oeb[41]
*697 gpio_oeb[42]
*698 gpio_oeb[43]
*699 gpio_oeb[4]
*700 gpio_oeb[5]
*701 gpio_oeb[6]
*702 gpio_oeb[7]
*703 gpio_oeb[8]
*704 gpio_oeb[9]
*705 gpio_out[0]
*706 gpio_out[10]
*707 gpio_out[11]
*708 gpio_out[12]
*709 gpio_out[13]
*710 gpio_out[14]
*711 gpio_out[15]
*712 gpio_out[16]
*713 gpio_out[17]
*714 gpio_out[18]
*715 gpio_out[19]
*716 gpio_out[1]
*717 gpio_out[20]
*718 gpio_out[21]
*719 gpio_out[22]
*720 gpio_out[23]
*721 gpio_out[24]
*722 gpio_out[25]
*723 gpio_out[26]
*724 gpio_out[27]
*725 gpio_out[28]
*726 gpio_out[29]
*727 gpio_out[2]
*728 gpio_out[30]
*729 gpio_out[31]
*730 gpio_out[32]
*731 gpio_out[33]
*732 gpio_out[34]
*733 gpio_out[35]
*734 gpio_out[36]
*735 gpio_out[37]
*736 gpio_out[38]
*737 gpio_out[39]
*738 gpio_out[3]
*739 gpio_out[40]
*740 gpio_out[41]
*741 gpio_out[42]
*742 gpio_out[43]
*743 gpio_out[4]
*744 gpio_out[5]
*745 gpio_out[6]
*746 gpio_out[7]
*747 gpio_out[8]
*748 gpio_out[9]
*749 gpio_slow_sel[0]
*750 gpio_slow_sel[10]
*751 gpio_slow_sel[11]
*752 gpio_slow_sel[12]
*753 gpio_slow_sel[13]
*754 gpio_slow_sel[14]
*755 gpio_slow_sel[15]
*756 gpio_slow_sel[16]
*757 gpio_slow_sel[17]
*758 gpio_slow_sel[18]
*759 gpio_slow_sel[19]
*760 gpio_slow_sel[1]
*761 gpio_slow_sel[20]
*762 gpio_slow_sel[21]
*763 gpio_slow_sel[22]
*764 gpio_slow_sel[23]
*765 gpio_slow_sel[24]
*766 gpio_slow_sel[25]
*767 gpio_slow_sel[26]
*768 gpio_slow_sel[27]
*769 gpio_slow_sel[28]
*770 gpio_slow_sel[29]
*771 gpio_slow_sel[2]
*772 gpio_slow_sel[30]
*773 gpio_slow_sel[31]
*774 gpio_slow_sel[32]
*775 gpio_slow_sel[33]
*776 gpio_slow_sel[34]
*777 gpio_slow_sel[35]
*778 gpio_slow_sel[36]
*779 gpio_slow_sel[37]
*780 gpio_slow_sel[38]
*781 gpio_slow_sel[39]
*782 gpio_slow_sel[3]
*783 gpio_slow_sel[40]
*784 gpio_slow_sel[41]
*785 gpio_slow_sel[42]
*786 gpio_slow_sel[43]
*787 gpio_slow_sel[4]
*788 gpio_slow_sel[5]
*789 gpio_slow_sel[6]
*790 gpio_slow_sel[7]
*791 gpio_slow_sel[8]
*792 gpio_slow_sel[9]
*793 gpio_vtrip_sel[0]
*794 gpio_vtrip_sel[10]
*795 gpio_vtrip_sel[11]
*796 gpio_vtrip_sel[12]
*797 gpio_vtrip_sel[13]
*798 gpio_vtrip_sel[14]
*799 gpio_vtrip_sel[15]
*800 gpio_vtrip_sel[16]
*801 gpio_vtrip_sel[17]
*802 gpio_vtrip_sel[18]
*803 gpio_vtrip_sel[19]
*804 gpio_vtrip_sel[1]
*805 gpio_vtrip_sel[20]
*806 gpio_vtrip_sel[21]
*807 gpio_vtrip_sel[22]
*808 gpio_vtrip_sel[23]
*809 gpio_vtrip_sel[24]
*810 gpio_vtrip_sel[25]
*811 gpio_vtrip_sel[26]
*812 gpio_vtrip_sel[27]
*813 gpio_vtrip_sel[28]
*814 gpio_vtrip_sel[29]
*815 gpio_vtrip_sel[2]
*816 gpio_vtrip_sel[30]
*817 gpio_vtrip_sel[31]
*818 gpio_vtrip_sel[32]
*819 gpio_vtrip_sel[33]
*820 gpio_vtrip_sel[34]
*821 gpio_vtrip_sel[35]
*822 gpio_vtrip_sel[36]
*823 gpio_vtrip_sel[37]
*824 gpio_vtrip_sel[38]
*825 gpio_vtrip_sel[39]
*826 gpio_vtrip_sel[3]
*827 gpio_vtrip_sel[40]
*828 gpio_vtrip_sel[41]
*829 gpio_vtrip_sel[42]
*830 gpio_vtrip_sel[43]
*831 gpio_vtrip_sel[4]
*832 gpio_vtrip_sel[5]
*833 gpio_vtrip_sel[6]
*834 gpio_vtrip_sel[7]
*835 gpio_vtrip_sel[8]
*836 gpio_vtrip_sel[9]
*837 mask_rev[0]
*838 mask_rev[10]
*839 mask_rev[11]
*840 mask_rev[12]
*841 mask_rev[13]
*842 mask_rev[14]
*843 mask_rev[15]
*844 mask_rev[16]
*845 mask_rev[17]
*846 mask_rev[18]
*847 mask_rev[19]
*848 mask_rev[1]
*849 mask_rev[20]
*850 mask_rev[21]
*851 mask_rev[22]
*852 mask_rev[23]
*853 mask_rev[24]
*854 mask_rev[25]
*855 mask_rev[26]
*856 mask_rev[27]
*857 mask_rev[28]
*858 mask_rev[29]
*859 mask_rev[2]
*860 mask_rev[30]
*861 mask_rev[31]
*862 mask_rev[3]
*863 mask_rev[4]
*864 mask_rev[5]
*865 mask_rev[6]
*866 mask_rev[7]
*867 mask_rev[8]
*868 mask_rev[9]
*869 por_l
*870 porb_h
*871 porb_l
*872 resetb_h
*873 resetb_l
*874 mprj

*PORTS
analog_io[0] I
analog_io[10] I
analog_io[11] I
analog_io[12] I
analog_io[13] I
analog_io[14] I
analog_io[15] I
analog_io[16] I
analog_io[17] I
analog_io[18] I
analog_io[19] I
analog_io[1] I
analog_io[20] I
analog_io[21] I
analog_io[22] I
analog_io[23] I
analog_io[24] I
analog_io[25] I
analog_io[26] I
analog_io[27] I
analog_io[28] I
analog_io[29] I
analog_io[2] I
analog_io[30] I
analog_io[31] I
analog_io[32] I
analog_io[33] I
analog_io[34] I
analog_io[35] I
analog_io[36] I
analog_io[37] I
analog_io[38] I
analog_io[39] I
analog_io[3] I
analog_io[40] I
analog_io[41] I
analog_io[42] I
analog_io[43] I
analog_io[4] I
analog_io[5] I
analog_io[6] I
analog_io[7] I
analog_io[8] I
analog_io[9] I
analog_noesd_io[0] I
analog_noesd_io[10] I
analog_noesd_io[11] I
analog_noesd_io[12] I
analog_noesd_io[13] I
analog_noesd_io[14] I
analog_noesd_io[15] I
analog_noesd_io[16] I
analog_noesd_io[17] I
analog_noesd_io[18] I
analog_noesd_io[19] I
analog_noesd_io[1] I
analog_noesd_io[20] I
analog_noesd_io[21] I
analog_noesd_io[22] I
analog_noesd_io[23] I
analog_noesd_io[24] I
analog_noesd_io[25] I
analog_noesd_io[26] I
analog_noesd_io[27] I
analog_noesd_io[28] I
analog_noesd_io[29] I
analog_noesd_io[2] I
analog_noesd_io[30] I
analog_noesd_io[31] I
analog_noesd_io[32] I
analog_noesd_io[33] I
analog_noesd_io[34] I
analog_noesd_io[35] I
analog_noesd_io[36] I
analog_noesd_io[37] I
analog_noesd_io[38] I
analog_noesd_io[39] I
analog_noesd_io[3] I
analog_noesd_io[40] I
analog_noesd_io[41] I
analog_noesd_io[42] I
analog_noesd_io[43] I
analog_noesd_io[4] I
analog_noesd_io[5] I
analog_noesd_io[6] I
analog_noesd_io[7] I
analog_noesd_io[8] I
analog_noesd_io[9] I
gpio_analog_en[0] O
gpio_analog_en[10] O
gpio_analog_en[11] O
gpio_analog_en[12] O
gpio_analog_en[13] O
gpio_analog_en[14] O
gpio_analog_en[15] O
gpio_analog_en[16] O
gpio_analog_en[17] O
gpio_analog_en[18] O
gpio_analog_en[19] O
gpio_analog_en[1] O
gpio_analog_en[20] O
gpio_analog_en[21] O
gpio_analog_en[22] O
gpio_analog_en[23] O
gpio_analog_en[24] O
gpio_analog_en[25] O
gpio_analog_en[26] O
gpio_analog_en[27] O
gpio_analog_en[28] O
gpio_analog_en[29] O
gpio_analog_en[2] O
gpio_analog_en[30] O
gpio_analog_en[31] O
gpio_analog_en[32] O
gpio_analog_en[33] O
gpio_analog_en[34] O
gpio_analog_en[35] O
gpio_analog_en[36] O
gpio_analog_en[37] O
gpio_analog_en[38] O
gpio_analog_en[39] O
gpio_analog_en[3] O
gpio_analog_en[40] O
gpio_analog_en[41] O
gpio_analog_en[42] O
gpio_analog_en[43] O
gpio_analog_en[4] O
gpio_analog_en[5] O
gpio_analog_en[6] O
gpio_analog_en[7] O
gpio_analog_en[8] O
gpio_analog_en[9] O
gpio_analog_pol[0] O
gpio_analog_pol[10] O
gpio_analog_pol[11] O
gpio_analog_pol[12] O
gpio_analog_pol[13] O
gpio_analog_pol[14] O
gpio_analog_pol[15] O
gpio_analog_pol[16] O
gpio_analog_pol[17] O
gpio_analog_pol[18] O
gpio_analog_pol[19] O
gpio_analog_pol[1] O
gpio_analog_pol[20] O
gpio_analog_pol[21] O
gpio_analog_pol[22] O
gpio_analog_pol[23] O
gpio_analog_pol[24] O
gpio_analog_pol[25] O
gpio_analog_pol[26] O
gpio_analog_pol[27] O
gpio_analog_pol[28] O
gpio_analog_pol[29] O
gpio_analog_pol[2] O
gpio_analog_pol[30] O
gpio_analog_pol[31] O
gpio_analog_pol[32] O
gpio_analog_pol[33] O
gpio_analog_pol[34] O
gpio_analog_pol[35] O
gpio_analog_pol[36] O
gpio_analog_pol[37] O
gpio_analog_pol[38] O
gpio_analog_pol[39] O
gpio_analog_pol[3] O
gpio_analog_pol[40] O
gpio_analog_pol[41] O
gpio_analog_pol[42] O
gpio_analog_pol[43] O
gpio_analog_pol[4] O
gpio_analog_pol[5] O
gpio_analog_pol[6] O
gpio_analog_pol[7] O
gpio_analog_pol[8] O
gpio_analog_pol[9] O
gpio_analog_sel[0] O
gpio_analog_sel[10] O
gpio_analog_sel[11] O
gpio_analog_sel[12] O
gpio_analog_sel[13] O
gpio_analog_sel[14] O
gpio_analog_sel[15] O
gpio_analog_sel[16] O
gpio_analog_sel[17] O
gpio_analog_sel[18] O
gpio_analog_sel[19] O
gpio_analog_sel[1] O
gpio_analog_sel[20] O
gpio_analog_sel[21] O
gpio_analog_sel[22] O
gpio_analog_sel[23] O
gpio_analog_sel[24] O
gpio_analog_sel[25] O
gpio_analog_sel[26] O
gpio_analog_sel[27] O
gpio_analog_sel[28] O
gpio_analog_sel[29] O
gpio_analog_sel[2] O
gpio_analog_sel[30] O
gpio_analog_sel[31] O
gpio_analog_sel[32] O
gpio_analog_sel[33] O
gpio_analog_sel[34] O
gpio_analog_sel[35] O
gpio_analog_sel[36] O
gpio_analog_sel[37] O
gpio_analog_sel[38] O
gpio_analog_sel[39] O
gpio_analog_sel[3] O
gpio_analog_sel[40] O
gpio_analog_sel[41] O
gpio_analog_sel[42] O
gpio_analog_sel[43] O
gpio_analog_sel[4] O
gpio_analog_sel[5] O
gpio_analog_sel[6] O
gpio_analog_sel[7] O
gpio_analog_sel[8] O
gpio_analog_sel[9] O
gpio_dm0[0] O
gpio_dm0[10] O
gpio_dm0[11] O
gpio_dm0[12] O
gpio_dm0[13] O
gpio_dm0[14] O
gpio_dm0[15] O
gpio_dm0[16] O
gpio_dm0[17] O
gpio_dm0[18] O
gpio_dm0[19] O
gpio_dm0[1] O
gpio_dm0[20] O
gpio_dm0[21] O
gpio_dm0[22] O
gpio_dm0[23] O
gpio_dm0[24] O
gpio_dm0[25] O
gpio_dm0[26] O
gpio_dm0[27] O
gpio_dm0[28] O
gpio_dm0[29] O
gpio_dm0[2] O
gpio_dm0[30] O
gpio_dm0[31] O
gpio_dm0[32] O
gpio_dm0[33] O
gpio_dm0[34] O
gpio_dm0[35] O
gpio_dm0[36] O
gpio_dm0[37] O
gpio_dm0[38] O
gpio_dm0[39] O
gpio_dm0[3] O
gpio_dm0[40] O
gpio_dm0[41] O
gpio_dm0[42] O
gpio_dm0[43] O
gpio_dm0[4] O
gpio_dm0[5] O
gpio_dm0[6] O
gpio_dm0[7] O
gpio_dm0[8] O
gpio_dm0[9] O
gpio_dm1[0] O
gpio_dm1[10] O
gpio_dm1[11] O
gpio_dm1[12] O
gpio_dm1[13] O
gpio_dm1[14] O
gpio_dm1[15] O
gpio_dm1[16] O
gpio_dm1[17] O
gpio_dm1[18] O
gpio_dm1[19] O
gpio_dm1[1] O
gpio_dm1[20] O
gpio_dm1[21] O
gpio_dm1[22] O
gpio_dm1[23] O
gpio_dm1[24] O
gpio_dm1[25] O
gpio_dm1[26] O
gpio_dm1[27] O
gpio_dm1[28] O
gpio_dm1[29] O
gpio_dm1[2] O
gpio_dm1[30] O
gpio_dm1[31] O
gpio_dm1[32] O
gpio_dm1[33] O
gpio_dm1[34] O
gpio_dm1[35] O
gpio_dm1[36] O
gpio_dm1[37] O
gpio_dm1[38] O
gpio_dm1[39] O
gpio_dm1[3] O
gpio_dm1[40] O
gpio_dm1[41] O
gpio_dm1[42] O
gpio_dm1[43] O
gpio_dm1[4] O
gpio_dm1[5] O
gpio_dm1[6] O
gpio_dm1[7] O
gpio_dm1[8] O
gpio_dm1[9] O
gpio_dm2[0] O
gpio_dm2[10] O
gpio_dm2[11] O
gpio_dm2[12] O
gpio_dm2[13] O
gpio_dm2[14] O
gpio_dm2[15] O
gpio_dm2[16] O
gpio_dm2[17] O
gpio_dm2[18] O
gpio_dm2[19] O
gpio_dm2[1] O
gpio_dm2[20] O
gpio_dm2[21] O
gpio_dm2[22] O
gpio_dm2[23] O
gpio_dm2[24] O
gpio_dm2[25] O
gpio_dm2[26] O
gpio_dm2[27] O
gpio_dm2[28] O
gpio_dm2[29] O
gpio_dm2[2] O
gpio_dm2[30] O
gpio_dm2[31] O
gpio_dm2[32] O
gpio_dm2[33] O
gpio_dm2[34] O
gpio_dm2[35] O
gpio_dm2[36] O
gpio_dm2[37] O
gpio_dm2[38] O
gpio_dm2[39] O
gpio_dm2[3] O
gpio_dm2[40] O
gpio_dm2[41] O
gpio_dm2[42] O
gpio_dm2[43] O
gpio_dm2[4] O
gpio_dm2[5] O
gpio_dm2[6] O
gpio_dm2[7] O
gpio_dm2[8] O
gpio_dm2[9] O
gpio_holdover[0] O
gpio_holdover[10] O
gpio_holdover[11] O
gpio_holdover[12] O
gpio_holdover[13] O
gpio_holdover[14] O
gpio_holdover[15] O
gpio_holdover[16] O
gpio_holdover[17] O
gpio_holdover[18] O
gpio_holdover[19] O
gpio_holdover[1] O
gpio_holdover[20] O
gpio_holdover[21] O
gpio_holdover[22] O
gpio_holdover[23] O
gpio_holdover[24] O
gpio_holdover[25] O
gpio_holdover[26] O
gpio_holdover[27] O
gpio_holdover[28] O
gpio_holdover[29] O
gpio_holdover[2] O
gpio_holdover[30] O
gpio_holdover[31] O
gpio_holdover[32] O
gpio_holdover[33] O
gpio_holdover[34] O
gpio_holdover[35] O
gpio_holdover[36] O
gpio_holdover[37] O
gpio_holdover[38] O
gpio_holdover[39] O
gpio_holdover[3] O
gpio_holdover[40] O
gpio_holdover[41] O
gpio_holdover[42] O
gpio_holdover[43] O
gpio_holdover[4] O
gpio_holdover[5] O
gpio_holdover[6] O
gpio_holdover[7] O
gpio_holdover[8] O
gpio_holdover[9] O
gpio_ib_mode_sel[0] O
gpio_ib_mode_sel[10] O
gpio_ib_mode_sel[11] O
gpio_ib_mode_sel[12] O
gpio_ib_mode_sel[13] O
gpio_ib_mode_sel[14] O
gpio_ib_mode_sel[15] O
gpio_ib_mode_sel[16] O
gpio_ib_mode_sel[17] O
gpio_ib_mode_sel[18] O
gpio_ib_mode_sel[19] O
gpio_ib_mode_sel[1] O
gpio_ib_mode_sel[20] O
gpio_ib_mode_sel[21] O
gpio_ib_mode_sel[22] O
gpio_ib_mode_sel[23] O
gpio_ib_mode_sel[24] O
gpio_ib_mode_sel[25] O
gpio_ib_mode_sel[26] O
gpio_ib_mode_sel[27] O
gpio_ib_mode_sel[28] O
gpio_ib_mode_sel[29] O
gpio_ib_mode_sel[2] O
gpio_ib_mode_sel[30] O
gpio_ib_mode_sel[31] O
gpio_ib_mode_sel[32] O
gpio_ib_mode_sel[33] O
gpio_ib_mode_sel[34] O
gpio_ib_mode_sel[35] O
gpio_ib_mode_sel[36] O
gpio_ib_mode_sel[37] O
gpio_ib_mode_sel[38] O
gpio_ib_mode_sel[39] O
gpio_ib_mode_sel[3] O
gpio_ib_mode_sel[40] O
gpio_ib_mode_sel[41] O
gpio_ib_mode_sel[42] O
gpio_ib_mode_sel[43] O
gpio_ib_mode_sel[4] O
gpio_ib_mode_sel[5] O
gpio_ib_mode_sel[6] O
gpio_ib_mode_sel[7] O
gpio_ib_mode_sel[8] O
gpio_ib_mode_sel[9] O
gpio_in[0] I
gpio_in[10] I
gpio_in[11] I
gpio_in[12] I
gpio_in[13] I
gpio_in[14] I
gpio_in[15] I
gpio_in[16] I
gpio_in[17] I
gpio_in[18] I
gpio_in[19] I
gpio_in[1] I
gpio_in[20] I
gpio_in[21] I
gpio_in[22] I
gpio_in[23] I
gpio_in[24] I
gpio_in[25] I
gpio_in[26] I
gpio_in[27] I
gpio_in[28] I
gpio_in[29] I
gpio_in[2] I
gpio_in[30] I
gpio_in[31] I
gpio_in[32] I
gpio_in[33] I
gpio_in[34] I
gpio_in[35] I
gpio_in[36] I
gpio_in[37] I
gpio_in[38] I
gpio_in[39] I
gpio_in[3] I
gpio_in[40] I
gpio_in[41] I
gpio_in[42] I
gpio_in[43] I
gpio_in[4] I
gpio_in[5] I
gpio_in[6] I
gpio_in[7] I
gpio_in[8] I
gpio_in[9] I
gpio_in_h[0] I
gpio_in_h[10] I
gpio_in_h[11] I
gpio_in_h[12] I
gpio_in_h[13] I
gpio_in_h[14] I
gpio_in_h[15] I
gpio_in_h[16] I
gpio_in_h[17] I
gpio_in_h[18] I
gpio_in_h[19] I
gpio_in_h[1] I
gpio_in_h[20] I
gpio_in_h[21] I
gpio_in_h[22] I
gpio_in_h[23] I
gpio_in_h[24] I
gpio_in_h[25] I
gpio_in_h[26] I
gpio_in_h[27] I
gpio_in_h[28] I
gpio_in_h[29] I
gpio_in_h[2] I
gpio_in_h[30] I
gpio_in_h[31] I
gpio_in_h[32] I
gpio_in_h[33] I
gpio_in_h[34] I
gpio_in_h[35] I
gpio_in_h[36] I
gpio_in_h[37] I
gpio_in_h[38] I
gpio_in_h[39] I
gpio_in_h[3] I
gpio_in_h[40] I
gpio_in_h[41] I
gpio_in_h[42] I
gpio_in_h[43] I
gpio_in_h[4] I
gpio_in_h[5] I
gpio_in_h[6] I
gpio_in_h[7] I
gpio_in_h[8] I
gpio_in_h[9] I
gpio_inp_dis[0] O
gpio_inp_dis[10] O
gpio_inp_dis[11] O
gpio_inp_dis[12] O
gpio_inp_dis[13] O
gpio_inp_dis[14] O
gpio_inp_dis[15] O
gpio_inp_dis[16] O
gpio_inp_dis[17] O
gpio_inp_dis[18] O
gpio_inp_dis[19] O
gpio_inp_dis[1] O
gpio_inp_dis[20] O
gpio_inp_dis[21] O
gpio_inp_dis[22] O
gpio_inp_dis[23] O
gpio_inp_dis[24] O
gpio_inp_dis[25] O
gpio_inp_dis[26] O
gpio_inp_dis[27] O
gpio_inp_dis[28] O
gpio_inp_dis[29] O
gpio_inp_dis[2] O
gpio_inp_dis[30] O
gpio_inp_dis[31] O
gpio_inp_dis[32] O
gpio_inp_dis[33] O
gpio_inp_dis[34] O
gpio_inp_dis[35] O
gpio_inp_dis[36] O
gpio_inp_dis[37] O
gpio_inp_dis[38] O
gpio_inp_dis[39] O
gpio_inp_dis[3] O
gpio_inp_dis[40] O
gpio_inp_dis[41] O
gpio_inp_dis[42] O
gpio_inp_dis[43] O
gpio_inp_dis[4] O
gpio_inp_dis[5] O
gpio_inp_dis[6] O
gpio_inp_dis[7] O
gpio_inp_dis[8] O
gpio_inp_dis[9] O
gpio_loopback_one[0] I
gpio_loopback_one[10] I
gpio_loopback_one[11] I
gpio_loopback_one[12] I
gpio_loopback_one[13] I
gpio_loopback_one[14] I
gpio_loopback_one[15] I
gpio_loopback_one[16] I
gpio_loopback_one[17] I
gpio_loopback_one[18] I
gpio_loopback_one[19] I
gpio_loopback_one[1] I
gpio_loopback_one[20] I
gpio_loopback_one[21] I
gpio_loopback_one[22] I
gpio_loopback_one[23] I
gpio_loopback_one[24] I
gpio_loopback_one[25] I
gpio_loopback_one[26] I
gpio_loopback_one[27] I
gpio_loopback_one[28] I
gpio_loopback_one[29] I
gpio_loopback_one[2] I
gpio_loopback_one[30] I
gpio_loopback_one[31] I
gpio_loopback_one[32] I
gpio_loopback_one[33] I
gpio_loopback_one[34] I
gpio_loopback_one[35] I
gpio_loopback_one[36] I
gpio_loopback_one[37] I
gpio_loopback_one[38] I
gpio_loopback_one[39] I
gpio_loopback_one[3] I
gpio_loopback_one[40] I
gpio_loopback_one[41] I
gpio_loopback_one[42] I
gpio_loopback_one[43] I
gpio_loopback_one[4] I
gpio_loopback_one[5] I
gpio_loopback_one[6] I
gpio_loopback_one[7] I
gpio_loopback_one[8] I
gpio_loopback_one[9] I
gpio_loopback_zero[0] I
gpio_loopback_zero[10] I
gpio_loopback_zero[11] I
gpio_loopback_zero[12] I
gpio_loopback_zero[13] I
gpio_loopback_zero[14] I
gpio_loopback_zero[15] I
gpio_loopback_zero[16] I
gpio_loopback_zero[17] I
gpio_loopback_zero[18] I
gpio_loopback_zero[19] I
gpio_loopback_zero[1] I
gpio_loopback_zero[20] I
gpio_loopback_zero[21] I
gpio_loopback_zero[22] I
gpio_loopback_zero[23] I
gpio_loopback_zero[24] I
gpio_loopback_zero[25] I
gpio_loopback_zero[26] I
gpio_loopback_zero[27] I
gpio_loopback_zero[28] I
gpio_loopback_zero[29] I
gpio_loopback_zero[2] I
gpio_loopback_zero[30] I
gpio_loopback_zero[31] I
gpio_loopback_zero[32] I
gpio_loopback_zero[33] I
gpio_loopback_zero[34] I
gpio_loopback_zero[35] I
gpio_loopback_zero[36] I
gpio_loopback_zero[37] I
gpio_loopback_zero[38] I
gpio_loopback_zero[39] I
gpio_loopback_zero[3] I
gpio_loopback_zero[40] I
gpio_loopback_zero[41] I
gpio_loopback_zero[42] I
gpio_loopback_zero[43] I
gpio_loopback_zero[4] I
gpio_loopback_zero[5] I
gpio_loopback_zero[6] I
gpio_loopback_zero[7] I
gpio_loopback_zero[8] I
gpio_loopback_zero[9] I
gpio_oeb[0] O
gpio_oeb[10] O
gpio_oeb[11] O
gpio_oeb[12] O
gpio_oeb[13] O
gpio_oeb[14] O
gpio_oeb[15] O
gpio_oeb[16] O
gpio_oeb[17] O
gpio_oeb[18] O
gpio_oeb[19] O
gpio_oeb[1] O
gpio_oeb[20] O
gpio_oeb[21] O
gpio_oeb[22] O
gpio_oeb[23] O
gpio_oeb[24] O
gpio_oeb[25] O
gpio_oeb[26] O
gpio_oeb[27] O
gpio_oeb[28] O
gpio_oeb[29] O
gpio_oeb[2] O
gpio_oeb[30] O
gpio_oeb[31] O
gpio_oeb[32] O
gpio_oeb[33] O
gpio_oeb[34] O
gpio_oeb[35] O
gpio_oeb[36] O
gpio_oeb[37] O
gpio_oeb[38] O
gpio_oeb[39] O
gpio_oeb[3] O
gpio_oeb[40] O
gpio_oeb[41] O
gpio_oeb[42] O
gpio_oeb[43] O
gpio_oeb[4] O
gpio_oeb[5] O
gpio_oeb[6] O
gpio_oeb[7] O
gpio_oeb[8] O
gpio_oeb[9] O
gpio_out[0] O
gpio_out[10] O
gpio_out[11] O
gpio_out[12] O
gpio_out[13] O
gpio_out[14] O
gpio_out[15] O
gpio_out[16] O
gpio_out[17] O
gpio_out[18] O
gpio_out[19] O
gpio_out[1] O
gpio_out[20] O
gpio_out[21] O
gpio_out[22] O
gpio_out[23] O
gpio_out[24] O
gpio_out[25] O
gpio_out[26] O
gpio_out[27] O
gpio_out[28] O
gpio_out[29] O
gpio_out[2] O
gpio_out[30] O
gpio_out[31] O
gpio_out[32] O
gpio_out[33] O
gpio_out[34] O
gpio_out[35] O
gpio_out[36] O
gpio_out[37] O
gpio_out[38] O
gpio_out[39] O
gpio_out[3] O
gpio_out[40] O
gpio_out[41] O
gpio_out[42] O
gpio_out[43] O
gpio_out[4] O
gpio_out[5] O
gpio_out[6] O
gpio_out[7] O
gpio_out[8] O
gpio_out[9] O
gpio_slow_sel[0] O
gpio_slow_sel[10] O
gpio_slow_sel[11] O
gpio_slow_sel[12] O
gpio_slow_sel[13] O
gpio_slow_sel[14] O
gpio_slow_sel[15] O
gpio_slow_sel[16] O
gpio_slow_sel[17] O
gpio_slow_sel[18] O
gpio_slow_sel[19] O
gpio_slow_sel[1] O
gpio_slow_sel[20] O
gpio_slow_sel[21] O
gpio_slow_sel[22] O
gpio_slow_sel[23] O
gpio_slow_sel[24] O
gpio_slow_sel[25] O
gpio_slow_sel[26] O
gpio_slow_sel[27] O
gpio_slow_sel[28] O
gpio_slow_sel[29] O
gpio_slow_sel[2] O
gpio_slow_sel[30] O
gpio_slow_sel[31] O
gpio_slow_sel[32] O
gpio_slow_sel[33] O
gpio_slow_sel[34] O
gpio_slow_sel[35] O
gpio_slow_sel[36] O
gpio_slow_sel[37] O
gpio_slow_sel[38] O
gpio_slow_sel[39] O
gpio_slow_sel[3] O
gpio_slow_sel[40] O
gpio_slow_sel[41] O
gpio_slow_sel[42] O
gpio_slow_sel[43] O
gpio_slow_sel[4] O
gpio_slow_sel[5] O
gpio_slow_sel[6] O
gpio_slow_sel[7] O
gpio_slow_sel[8] O
gpio_slow_sel[9] O
gpio_vtrip_sel[0] O
gpio_vtrip_sel[10] O
gpio_vtrip_sel[11] O
gpio_vtrip_sel[12] O
gpio_vtrip_sel[13] O
gpio_vtrip_sel[14] O
gpio_vtrip_sel[15] O
gpio_vtrip_sel[16] O
gpio_vtrip_sel[17] O
gpio_vtrip_sel[18] O
gpio_vtrip_sel[19] O
gpio_vtrip_sel[1] O
gpio_vtrip_sel[20] O
gpio_vtrip_sel[21] O
gpio_vtrip_sel[22] O
gpio_vtrip_sel[23] O
gpio_vtrip_sel[24] O
gpio_vtrip_sel[25] O
gpio_vtrip_sel[26] O
gpio_vtrip_sel[27] O
gpio_vtrip_sel[28] O
gpio_vtrip_sel[29] O
gpio_vtrip_sel[2] O
gpio_vtrip_sel[30] O
gpio_vtrip_sel[31] O
gpio_vtrip_sel[32] O
gpio_vtrip_sel[33] O
gpio_vtrip_sel[34] O
gpio_vtrip_sel[35] O
gpio_vtrip_sel[36] O
gpio_vtrip_sel[37] O
gpio_vtrip_sel[38] O
gpio_vtrip_sel[39] O
gpio_vtrip_sel[3] O
gpio_vtrip_sel[40] O
gpio_vtrip_sel[41] O
gpio_vtrip_sel[42] O
gpio_vtrip_sel[43] O
gpio_vtrip_sel[4] O
gpio_vtrip_sel[5] O
gpio_vtrip_sel[6] O
gpio_vtrip_sel[7] O
gpio_vtrip_sel[8] O
gpio_vtrip_sel[9] O
mask_rev[0] I
mask_rev[10] I
mask_rev[11] I
mask_rev[12] I
mask_rev[13] I
mask_rev[14] I
mask_rev[15] I
mask_rev[16] I
mask_rev[17] I
mask_rev[18] I
mask_rev[19] I
mask_rev[1] I
mask_rev[20] I
mask_rev[21] I
mask_rev[22] I
mask_rev[23] I
mask_rev[24] I
mask_rev[25] I
mask_rev[26] I
mask_rev[27] I
mask_rev[28] I
mask_rev[29] I
mask_rev[2] I
mask_rev[30] I
mask_rev[31] I
mask_rev[3] I
mask_rev[4] I
mask_rev[5] I
mask_rev[6] I
mask_rev[7] I
mask_rev[8] I
mask_rev[9] I
por_l I
porb_h I
porb_l I
resetb_h I
resetb_l I

*D_NET *89 0.35502
*CONN
*P gpio_analog_en[0] O
*I *874:gpio_analog_en[0] O *D counter_gpio_config_example
*CAP
1 gpio_analog_en[0] 0.00315816
2 *874:gpio_analog_en[0] 0.000166038
3 *89:13 0.0243875
4 *89:11 0.0212294
5 *89:9 0.122213
6 *89:7 0.122379
7 gpio_analog_en[0] gpio_dm1[0] 3.86648e-06
8 gpio_analog_en[0] *221:17 0.00139263
9 *89:7 *136:7 0
10 *89:7 *192:7 3.62572e-05
11 *89:7 *381:11 3.65739e-05
12 *89:9 *136:9 0
13 *89:9 *297:9 0
14 *89:9 *381:11 0.000140525
15 *89:13 gpio_analog_pol[1] 0.00052174
16 *89:13 *188:13 0.0246329
17 *89:13 *348:13 0.01725
18 *89:13 *483:11 0.00808316
19 *89:13 *484:11 0.00938872
*RES
1 *874:gpio_analog_en[0] *89:7 0.449667 
2 *89:7 *89:9 293.119 
3 *89:9 *89:11 0.5 
4 *89:11 *89:13 77.6441 
5 *89:13 gpio_analog_en[0] 7.69657 
*END

*D_NET *90 0.495051
*CONN
*P gpio_analog_en[10] O
*I *874:gpio_analog_en[10] O *D counter_gpio_config_example
*CAP
1 gpio_analog_en[10] 0.00271534
2 *874:gpio_analog_en[10] 0.000185802
3 *90:17 0.058004
4 *90:15 0.0552887
5 *90:13 0.115924
6 *90:11 0.115924
7 *90:9 0.0716783
8 *90:7 0.0718641
9 gpio_analog_en[10] *222:17 0.000537862
10 *90:7 *146:11 0
11 *90:7 *182:11 3.45181e-05
12 *90:9 *146:11 0
13 *90:9 *182:11 0.00289417
14 *90:17 *222:17 0
15 *90:17 *266:21 0
*RES
1 *874:gpio_analog_en[10] *90:7 0.449667 
2 *90:7 *90:9 167.147 
3 *90:9 *90:11 0.5 
4 *90:11 *90:13 293.58 
5 *90:13 *90:15 0.5 
6 *90:15 *90:17 127.292 
7 *90:17 gpio_analog_en[10] 5.87037 
*END

*D_NET *91 0.910216
*CONN
*P gpio_analog_en[11] O
*I *874:gpio_analog_en[11] O *D counter_gpio_config_example
*CAP
1 gpio_analog_en[11] 0.00125899
2 *874:gpio_analog_en[11] 0.00183087
3 *91:21 0.105534
4 *91:19 0.104275
5 *91:17 0.056363
6 *91:15 0.0564773
7 *91:9 0.0196893
8 *91:7 0.0214058
9 gpio_analog_en[11] gpio_dm0[11] 0.000578635
10 *91:7 *163:7 0.00046327
11 *91:7 *279:7 0.000464396
12 *91:9 *93:15 0
13 *91:9 *99:9 0.00467791
14 *91:9 *105:17 0.0172979
15 *91:9 *115:9 0.00128131
16 *91:9 *116:9 0.00984446
17 *91:9 *122:15 0.00165833
18 *91:9 *123:9 0.000200748
19 *91:9 *244:9 0.00129455
20 *91:9 *283:9 0.00218942
21 *91:9 *309:9 0.0213039
22 *91:9 *779:18 0.0278435
23 *91:17 *105:17 0.0358505
24 *91:17 *115:9 0.00705962
25 *91:17 *283:9 0.0127886
26 *91:17 *402:9 0.151297
27 *91:17 *779:18 0.000803037
28 *91:21 gpio_dm0[11] 0.000397479
29 *91:21 *223:13 0.246087
30 *91:21 *267:17 0
*RES
1 *874:gpio_analog_en[11] *91:7 5.0638 
2 *91:7 *91:9 99.4359 
3 *91:9 *91:15 1.18367 
4 *91:15 *91:17 1708.09 
5 *91:17 *91:19 0.5 
6 *91:19 *91:21 377.752 
7 *91:21 gpio_analog_en[11] 2.95197 
*END

*D_NET *92 0.662501
*CONN
*P gpio_analog_en[12] O
*I *874:gpio_analog_en[12] O *D counter_gpio_config_example
*CAP
1 gpio_analog_en[12] 0.00407717
2 *874:gpio_analog_en[12] 0.00013988
3 *92:13 0.124182
4 *92:11 0.120104
5 *92:9 0.118449
6 *92:7 0.118589
7 gpio_analog_en[12] *224:13 0.00115827
8 gpio_analog_en[12] *268:21 0.00317776
9 *92:7 *166:11 4.41342e-05
10 *92:7 *543:11 3.85255e-05
11 *92:9 *166:11 0.00460351
12 *92:9 *209:9 0
13 *92:9 *543:11 2.16813e-05
14 *92:13 gpio_analog_sel[2] 0.00148933
15 *92:13 *100:13 0
16 *92:13 *131:13 0
17 *92:13 *261:13 0.0184915
18 *92:13 *331:15 0.024762
19 *92:13 *353:15 0.000748113
20 *92:13 *570:14 0.061483
21 *92:13 *788:15 0.00200854
22 *92:13 *798:21 0.0589336
*RES
1 *874:gpio_analog_en[12] *92:7 0.449667 
2 *92:7 *92:9 289.507 
3 *92:9 *92:11 0.5 
4 *92:11 *92:13 374.976 
5 *92:13 gpio_analog_en[12] 11.4548 
*END

*D_NET *93 0.794864
*CONN
*P gpio_analog_en[13] O
*I *874:gpio_analog_en[13] O *D counter_gpio_config_example
*CAP
1 gpio_analog_en[13] 0.00289493
2 *874:gpio_analog_en[13] 0.0105364
3 *93:21 0.158288
4 *93:19 0.155393
5 *93:17 0.096248
6 *93:15 0.106784
7 gpio_analog_en[13] *225:13 0
8 *93:15 *122:15 0.000183083
9 *93:15 *244:9 0.0107456
10 *93:15 *309:9 0
11 *93:15 *371:7 0.000402533
12 *93:15 *426:7 0.000392655
13 *93:15 *426:9 0.0211504
14 *93:15 *778:13 0.000602243
15 *93:17 *105:9 0.0115878
16 *93:17 *127:9 0.00539939
17 *93:17 *127:19 1.92979e-05
18 *93:17 *133:9 0.000602243
19 *93:17 *180:9 0.18671
20 *93:17 *194:9 0
21 *93:17 *244:9 0.0107596
22 *93:17 *369:9 0
23 *93:17 *392:13 0.00254069
24 *93:17 *426:9 0.000208883
25 *93:17 *431:9 0.013415
26 *93:17 *536:9 0
27 *93:17 *537:9 0
28 *93:21 *225:13 0
29 *93:21 *269:17 0
30 *91:9 *93:15 0
*RES
1 *874:gpio_analog_en[13] *93:15 45.9575 
2 *93:15 *93:17 2652.61 
3 *93:17 *93:19 0.5 
4 *93:19 *93:21 374.197 
5 *93:21 gpio_analog_en[13] 5.75383 
*END

*D_NET *94 0.689973
*CONN
*P gpio_analog_en[14] O
*I *874:gpio_analog_en[14] O *D counter_gpio_config_example
*CAP
1 gpio_analog_en[14] 0.000207295
2 *874:gpio_analog_en[14] 0.00416859
3 *94:17 0.117269
4 *94:15 0.117062
5 *94:13 0.141485
6 *94:11 0.145654
7 gpio_analog_en[14] gpio_dm0[14] 5.13014e-05
8 *94:11 *205:11 0
9 *94:11 *226:7 3.42717e-05
10 *94:11 *226:9 0.000239667
11 *94:11 *293:11 0.000160543
12 *94:11 *368:31 2.95326e-05
13 *94:11 *562:17 0.00132898
14 *94:13 *213:13 0.000637925
15 *94:13 *310:13 0.151835
16 *94:13 *408:13 0
17 *94:17 gpio_dm0[14] 0.00981045
18 *94:17 *270:17 0
*RES
1 *874:gpio_analog_en[14] *94:11 10.7384 
2 *94:11 *94:13 452.238 
3 *94:13 *94:15 0.5 
4 *94:15 *94:17 289.623 
5 *94:17 gpio_analog_en[14] 0.5605 
*END

*D_NET *95 0.856417
*CONN
*P gpio_analog_en[15] O
*I *874:gpio_analog_en[15] O *D counter_gpio_config_example
*CAP
1 gpio_analog_en[15] 3.48786e-05
2 *874:gpio_analog_en[15] 0.00252908
3 *95:13 0.112952
4 *95:11 0.112918
5 *95:9 0.103988
6 *95:7 0.106517
7 gpio_analog_en[15] gpio_dm0[15] 0
8 *95:7 *122:15 0.00039761
9 *95:7 *536:7 0.000303948
10 *95:9 *96:9 0.276087
11 *95:9 *151:9 0
12 *95:9 *174:9 0.0190615
13 *95:9 *184:19 5.19291e-05
14 *95:9 *197:9 0.00702896
15 *95:9 *249:9 0.00842059
16 *95:9 *272:19 0
17 *95:9 *274:9 1.88185e-05
18 *95:9 *283:17 0.00644578
19 *95:9 *325:9 0.0196415
20 *95:9 *470:11 0.0152981
21 *95:9 *821:13 0
22 *95:13 gpio_oeb[21] 0.00604716
23 *95:13 gpio_out[15] 0.00155467
24 *95:13 gpio_out[21] 0.000519526
25 *95:13 *99:13 0.00548977
26 *95:13 *102:13 0.0500179
27 *95:13 *449:13 0.000915398
28 *95:13 *454:11 0.000176867
*RES
1 *874:gpio_analog_en[15] *95:7 6.0252 
2 *95:7 *95:9 3135.07 
3 *95:9 *95:11 0.5 
4 *95:11 *95:13 356.31 
5 *95:13 gpio_analog_en[15] 1.0625 
*END

*D_NET *96 1.09823
*CONN
*P gpio_analog_en[16] O
*I *874:gpio_analog_en[16] O *D counter_gpio_config_example
*CAP
1 gpio_analog_en[16] 0.000999082
2 *874:gpio_analog_en[16] 0.00225293
3 *96:13 0.0636347
4 *96:11 0.0626356
5 *96:9 0.0470098
6 *96:7 0.0492627
7 gpio_analog_en[16] gpio_dm0[16] 0
8 *96:7 *183:7 0
9 *96:7 *244:7 0.000408905
10 *96:7 *280:7 0.000555178
11 *96:9 *174:9 0.0241755
12 *96:9 *249:9 0.00177
13 *96:9 *274:9 0.286215
14 *96:9 *283:17 0.0150285
15 *96:9 *325:9 0.00961819
16 *96:9 *470:11 0.00427115
17 *96:13 *184:21 0
18 *96:13 *272:21 0
19 *96:13 *316:15 0.18481
20 *96:13 *361:13 0.069494
21 *95:9 *96:9 0.276087
*RES
1 *874:gpio_analog_en[16] *96:7 5.96693 
2 *96:7 *96:9 3233.12 
3 *96:9 *96:11 2 
4 *96:11 *96:13 1727.52 
5 *96:13 gpio_analog_en[16] 19.265 
*END

*D_NET *97 0.534405
*CONN
*P gpio_analog_en[17] O
*I *874:gpio_analog_en[17] O *D counter_gpio_config_example
*CAP
1 gpio_analog_en[17] 0.0020714
2 *874:gpio_analog_en[17] 0.00445467
3 *97:19 0.0020714
4 *97:17 0.0689592
5 *97:15 0.0689592
6 *97:13 0.158317
7 *97:11 0.162771
8 gpio_analog_en[17] gpio_dm0[17] 0
9 gpio_analog_en[17] *449:15 0.00509312
10 *97:11 *109:11 0.000584932
11 *97:11 *255:7 3.80212e-05
12 *97:11 *255:9 0.00114222
13 *97:11 *727:29 0
14 *97:13 *124:13 0.0134726
15 *97:13 *263:13 0.04647
16 *97:17 *98:17 0
17 *97:17 *451:9 0
*RES
1 *874:gpio_analog_en[17] *97:11 11.7379 
2 *97:11 *97:13 2923.94 
3 *97:13 *97:15 0.5 
4 *97:15 *97:17 166.914 
5 *97:17 *97:19 0.5 
6 *97:19 gpio_analog_en[17] 58.7025 
*END

*D_NET *98 0.535083
*CONN
*P gpio_analog_en[18] O
*I *874:gpio_analog_en[18] O *D counter_gpio_config_example
*CAP
1 gpio_analog_en[18] 0.00353257
2 *874:gpio_analog_en[18] 0.00702431
3 *98:19 0.00353257
4 *98:17 0.043926
5 *98:15 0.043926
6 *98:13 0.151879
7 *98:11 0.158904
8 gpio_analog_en[18] gpio_dm0[18] 0
9 gpio_analog_en[18] *450:13 0
10 *98:11 *146:11 0.000211216
11 *98:11 *290:11 0.000145612
12 *98:11 *318:9 0
13 *98:13 *258:13 0.0195215
14 *98:13 *401:13 0.101491
15 *98:13 *430:17 0.000989428
16 *97:17 *98:17 0
*RES
1 *874:gpio_analog_en[18] *98:11 16.1079 
2 *98:11 *98:13 2834.69 
3 *98:13 *98:15 0.5 
4 *98:15 *98:17 106.2 
5 *98:17 *98:19 0.5 
6 *98:19 gpio_analog_en[18] 63.8025 
*END

*D_NET *99 0.710479
*CONN
*P gpio_analog_en[19] O
*I *874:gpio_analog_en[19] O *D counter_gpio_config_example
*CAP
1 gpio_analog_en[19] 0.000181438
2 *874:gpio_analog_en[19] 0.00200186
3 *99:13 0.0491715
4 *99:11 0.0489901
5 *99:9 0.11455
6 *99:7 0.116551
7 gpio_analog_en[19] gpio_dm0[19] 0
8 *99:7 *141:7 3.65755e-05
9 *99:7 *193:7 0
10 *99:7 *325:7 0.000463872
11 *99:9 *105:17 0.0568454
12 *99:9 *115:9 0.000316659
13 *99:9 *123:9 0.0312174
14 *99:9 *189:9 0.25651
15 *99:9 *259:27 1.92979e-05
16 *99:9 *316:11 0
17 *99:9 *369:9 0
18 *99:9 *402:9 0.00102149
19 *99:9 *778:13 0
20 *99:13 gpio_analog_sel[22] 0.007022
21 *99:13 gpio_dm1[23] 0.00265581
22 *99:13 gpio_oeb[21] 0.000462267
23 *99:13 gpio_out[21] 0.0073279
24 *99:13 *102:13 0.00496603
25 *91:9 *99:9 0.00467791
26 *95:13 *99:13 0.00548977
*RES
1 *874:gpio_analog_en[19] *99:7 5.03467 
2 *99:7 *99:9 3282.98 
3 *99:9 *99:11 0.5 
4 *99:11 *99:13 137.431 
5 *99:13 gpio_analog_en[19] 3.6125 
*END

*D_NET *100 0.32963
*CONN
*P gpio_analog_en[1] O
*I *874:gpio_analog_en[1] O *D counter_gpio_config_example
*CAP
1 gpio_analog_en[1] 0.00375039
2 *874:gpio_analog_en[1] 0.000170642
3 *100:20 0
4 *100:13 0.0214113
5 *100:11 0.0176609
6 *100:9 0.1222
7 *100:7 0.122371
8 gpio_analog_en[1] gpio_dm0[1] 0.000835793
9 gpio_analog_en[1] gpio_dm1[1] 0
10 gpio_analog_en[1] *232:18 0
11 gpio_analog_en[1] *276:21 0.00523424
12 *100:7 *401:11 3.25733e-05
13 *100:7 *415:11 4.71514e-05
14 *100:9 *188:9 0
15 *100:9 *356:9 0
16 *100:9 *401:11 0.00157827
17 *100:9 *415:11 0.000461329
18 *100:13 *131:13 0.0332148
19 *100:13 *353:15 0
20 *100:13 *794:13 0.00066159
21 *92:13 *100:13 0
*RES
1 *874:gpio_analog_en[1] *100:7 0.449667 
2 *100:7 *100:9 288.808 
3 *100:9 *100:11 0.5 
4 *100:11 *100:13 65.1548 
5 *100:13 gpio_analog_en[1] 11.2971 
6 gpio_analog_en[1] *100:20 0.04 
*END

*D_NET *101 0.629734
*CONN
*P gpio_analog_en[20] O
*I *874:gpio_analog_en[20] O *D counter_gpio_config_example
*CAP
1 gpio_analog_en[20] 0.000928611
2 *874:gpio_analog_en[20] 0.00303711
3 *101:17 0.0171204
4 *101:15 0.017247
5 *101:9 0.156616
6 *101:7 0.158598
7 gpio_analog_en[20] gpio_dm0[20] 0
8 gpio_analog_en[20] *233:25 0
9 *101:7 *220:7 0.000748242
10 *101:7 *547:7 0
11 *101:9 *259:17 0.000270098
12 *101:9 *329:9 0.102775
13 *101:9 *565:9 0.0362064
14 *101:9 *689:13 0
15 *101:9 *691:13 0
16 *101:15 *183:19 0.00030703
17 *101:17 gpio_analog_pol[20] 0.000444621
18 *101:17 *189:13 0.0660795
19 *101:17 *274:13 0.00122001
20 *101:17 *365:13 0.0672313
21 *101:17 *366:13 0.000904176
*RES
1 *874:gpio_analog_en[20] *101:7 7.65667 
2 *101:7 *101:9 3299.34 
3 *101:9 *101:15 20.39 
4 *101:15 *101:17 107.423 
5 *101:17 gpio_analog_en[20] 16.745 
*END

*D_NET *102 0.527968
*CONN
*P gpio_analog_en[21] O
*I *874:gpio_analog_en[21] O *D counter_gpio_config_example
*CAP
1 gpio_analog_en[21] 6.94464e-05
2 *874:gpio_analog_en[21] 0.00262578
3 *102:13 0.00920383
4 *102:11 0.00913439
5 *102:9 0.173642
6 *102:7 0.176268
7 gpio_analog_en[21] gpio_dm0[21] 0
8 *102:7 *347:7 6.11634e-05
9 *102:7 *411:7 0.000360608
10 *102:7 *569:19 0
11 *102:9 *151:9 0
12 *102:9 *168:9 0.040067
13 *102:9 *205:21 0.00499289
14 *102:9 *272:19 0
15 *102:9 *349:9 0.0261135
16 *102:9 *821:13 0
17 *102:13 gpio_analog_sel[22] 0.0264342
18 *102:13 gpio_oeb[21] 0.00400999
19 *95:13 *102:13 0.0500179
20 *99:13 *102:13 0.00496603
*RES
1 *874:gpio_analog_en[21] *102:7 6.78267 
2 *102:7 *102:9 3358.97 
3 *102:9 *102:11 0.5 
4 *102:11 *102:13 73.9493 
5 *102:13 gpio_analog_en[21] 1.5725 
*END

*D_NET *103 0.53025
*CONN
*P gpio_analog_en[22] O
*I *874:gpio_analog_en[22] O *D counter_gpio_config_example
*CAP
1 gpio_analog_en[22] 0.0918285
2 *874:gpio_analog_en[22] 0.00161925
3 *103:27 0.0926572
4 *103:17 0.0159893
5 *103:15 0.0151605
6 *103:13 0.0178544
7 *103:11 0.0194737
8 gpio_analog_en[22] gpio_dm0[22] 0
9 gpio_analog_en[22] *675:5 0.232044
10 gpio_analog_en[22] *729:13 0.0150673
11 *103:11 *144:12 0.000109366
12 *103:11 *186:11 0.000457779
13 *103:11 *337:11 0
14 *103:13 *106:13 0.00767719
15 *103:13 *330:13 0.00504246
16 *103:13 *372:13 0.0102451
17 *103:13 *661:25 0
18 *103:13 *738:21 0
19 *103:17 *104:27 0.000101392
20 *103:17 *215:35 0
21 *103:17 *391:21 0
22 *103:17 *742:9 0.00357432
23 *103:27 *104:27 0.000117452
24 *103:27 *142:13 0.000253562
25 *103:27 *233:21 0.000167519
26 *103:27 *235:19 0.000466412
27 *103:27 *271:21 0.000160538
28 *103:27 *542:21 0.000182763
29 *103:27 *568:5 0
30 *103:27 *677:5 0
*RES
1 *874:gpio_analog_en[22] *103:11 4.39627 
2 *103:11 *103:13 413.332 
3 *103:13 *103:15 2 
4 *103:15 *103:17 253.335 
5 *103:17 *103:27 9.74697 
6 *103:27 gpio_analog_en[22] 2633.18 
*END

*D_NET *104 0.613816
*CONN
*P gpio_analog_en[23] O
*I *874:gpio_analog_en[23] O *D counter_gpio_config_example
*CAP
1 gpio_analog_en[23] 0.000670993
2 *874:gpio_analog_en[23] 0.00127893
3 *104:29 0.220133
4 *104:27 0.265974
5 *104:13 0.0537732
6 *104:11 0.00853991
7 gpio_analog_en[23] gpio_dm1[23] 0
8 gpio_analog_en[23] *236:17 0
9 *104:11 *254:15 0.00035063
10 *104:11 *364:7 2.85284e-05
11 *104:11 *364:9 0.000257649
12 *104:13 *112:13 0.00184101
13 *104:13 *114:19 0.00219
14 *104:13 *117:15 0.000164905
15 *104:13 *278:13 0.0153251
16 *104:13 *367:15 0.000622708
17 *104:13 *367:17 0.00157282
18 *104:13 *367:23 1.2778e-05
19 *104:13 *705:41 0
20 *104:27 *114:19 5.18735e-06
21 *104:27 *117:17 0.000166016
22 *104:27 *147:23 0.00250898
23 *104:27 *160:17 0.00011449
24 *104:27 *190:27 0.00184965
25 *104:27 *215:33 0.00765888
26 *104:27 *233:19 0.00202698
27 *104:27 *235:19 0.0019635
28 *104:27 *271:19 0.00207267
29 *104:27 *323:15 0.00255579
30 *104:27 *367:27 0.00207258
31 *104:27 *368:55 0.000118519
32 *104:27 *381:17 0.000313722
33 *104:27 *542:19 0.00185987
34 *104:27 *544:17 0.00425432
35 *104:27 *742:9 0.00313841
36 *104:27 *781:17 0.0026668
37 *104:27 *783:13 0.00256024
38 *104:27 *829:16 0.00295375
39 *103:17 *104:27 0.000101392
40 *103:27 *104:27 0.000117452
*RES
1 *874:gpio_analog_en[23] *104:11 3.6388 
2 *104:11 *104:13 217.365 
3 *104:13 *104:27 11.4531 
4 *104:27 *104:29 443.539 
5 *104:29 gpio_analog_en[23] 11.2112 
*END

*D_NET *105 0.735139
*CONN
*P gpio_analog_en[24] O
*I *874:gpio_analog_en[24] O *D counter_gpio_config_example
*CAP
1 gpio_analog_en[24] 0.00922218
2 *874:gpio_analog_en[24] 0.00181796
3 *105:17 0.172849
4 *105:15 0.163956
5 *105:9 0.00595729
6 *105:7 0.00744574
7 gpio_analog_en[24] gpio_dm0[24] 0.000469026
8 gpio_analog_en[24] *237:13 0
9 gpio_analog_en[24] *402:13 0
10 *105:7 *392:11 0
11 *105:7 *407:7 0.000339781
12 *105:7 *428:9 4.30894e-06
13 *105:9 *122:17 0.0177106
14 *105:9 *127:9 0.000649758
15 *105:9 *133:9 0.00120503
16 *105:9 *180:9 0.00192714
17 *105:9 *244:9 0.000559672
18 *105:9 *426:9 0.000154286
19 *105:9 *431:9 0.0015094
20 *105:9 *778:13 0.00460343
21 *105:15 gpio_ib_mode_sel[36] 0
22 *105:17 *115:9 0.00300461
23 *105:17 *116:9 0.0315611
24 *105:17 *154:17 0
25 *105:17 *189:9 0.0493873
26 *105:17 *194:9 0.00808328
27 *105:17 *244:9 0.0331252
28 *105:17 *283:17 0
29 *105:17 *316:11 0.0174761
30 *105:17 *369:9 0.0168501
31 *105:17 *377:17 0
32 *105:17 *402:9 0.061563
33 *105:17 *779:18 0.0021257
34 *91:9 *105:17 0.0172979
35 *91:17 *105:17 0.0358505
36 *93:17 *105:9 0.0115878
37 *99:9 *105:17 0.0568454
*RES
1 *874:gpio_analog_en[24] *105:7 4.33547 
2 *105:7 *105:9 292.335 
3 *105:9 *105:15 1.6498 
4 *105:15 *105:17 466.795 
5 *105:17 gpio_analog_en[24] 21.7971 
*END

*D_NET *106 0.363598
*CONN
*P gpio_analog_en[25] O
*I *874:gpio_analog_en[25] O *D counter_gpio_config_example
*CAP
1 gpio_analog_en[25] 6.89782e-05
2 *874:gpio_analog_en[25] 0.00165163
3 *106:25 0.0459518
4 *106:23 0.0458829
5 *106:21 0.0371873
6 *106:19 0.0374492
7 *106:13 0.069315
8 *106:11 0.0707047
9 *106:11 *148:11 0.000389237
10 *106:11 *531:11 0.000390867
11 *106:13 *278:23 0
12 *106:13 *330:13 0.012646
13 *106:13 *367:17 0
14 *106:13 *367:23 0
15 *106:13 *661:23 0
16 *106:13 *661:25 0
17 *106:19 *330:31 0.00033241
18 *106:21 *149:21 0.0338968
19 *106:21 *330:31 5.43466e-05
20 *106:25 gpio_analog_pol[25] 0
21 *106:25 gpio_dm0[25] 0
22 *106:25 *238:33 0
23 *106:25 *282:33 0
24 *103:13 *106:13 0.00767719
*RES
1 *874:gpio_analog_en[25] *106:11 4.338 
2 *106:11 *106:13 1305.7 
3 *106:13 *106:19 1.6498 
4 *106:19 *106:21 112.787 
5 *106:21 *106:23 0.5 
6 *106:23 *106:25 105.54 
7 *106:25 gpio_analog_en[25] 0.198233 
*END

*D_NET *107 0.496615
*CONN
*P gpio_analog_en[26] O
*I *874:gpio_analog_en[26] O *D counter_gpio_config_example
*CAP
1 gpio_analog_en[26] 0.00662725
2 *874:gpio_analog_en[26] 0.004265
3 *107:9 0.0659383
4 *107:7 0.063576
5 gpio_analog_en[26] gpio_dm0[26] 0.000458829
6 gpio_analog_en[26] gpio_dm1[26] 0.000670168
7 gpio_analog_en[26] *239:25 0.00373781
8 gpio_analog_en[26] *413:17 0.000291325
9 *107:7 gpio_oeb[37] 0
10 *107:7 *304:7 0.000990957
11 *107:7 *373:7 0
12 *107:7 *434:7 5.80604e-05
13 *107:9 *178:17 0.00257761
14 *107:9 *193:9 0.00693987
15 *107:9 *193:17 0.00171692
16 *107:9 *241:19 0.00917145
17 *107:9 *268:17 0.00621564
18 *107:9 *284:9 0.177488
19 *107:9 *374:9 0.145891
*RES
1 *874:gpio_analog_en[26] *107:7 9.72513 
2 *107:7 *107:9 360.075 
3 *107:9 gpio_analog_en[26] 17.5968 
*END

*D_NET *108 0.412041
*CONN
*P gpio_analog_en[27] O
*I *874:gpio_analog_en[27] O *D counter_gpio_config_example
*CAP
1 gpio_analog_en[27] 0.000991046
2 *874:gpio_analog_en[27] 0.00114895
3 *108:25 0.031134
4 *108:23 0.030143
5 *108:21 0.0409243
6 *108:19 0.0410136
7 *108:13 0.0692666
8 *108:11 0.0703262
9 gpio_analog_en[27] gpio_dm0[27] 0.00138724
10 gpio_analog_en[27] gpio_dm1[27] 0
11 *108:11 *166:11 0.000292918
12 *108:11 *170:13 0.000292397
13 *108:13 *112:13 0.046283
14 *108:13 *278:13 0.014545
15 *108:13 *672:13 0
16 *108:13 *694:13 0
17 *108:13 *787:15 0.00196316
18 *108:19 *112:31 0.000149656
19 *108:19 *156:17 0
20 *108:21 *112:31 5.43466e-05
21 *108:25 gpio_analog_pol[27] 0
22 *108:25 gpio_dm0[27] 0.062126
23 *108:25 *456:15 0
*RES
1 *874:gpio_analog_en[27] *108:11 3.464 
2 *108:11 *108:13 1474.52 
3 *108:13 *108:19 1.24193 
4 *108:19 *108:21 82.2092 
5 *108:21 *108:23 0.5 
6 *108:23 *108:25 102.092 
7 *108:25 gpio_analog_en[27] 4.67417 
*END

*D_NET *109 0.486345
*CONN
*P gpio_analog_en[28] O
*I *874:gpio_analog_en[28] O *D counter_gpio_config_example
*CAP
1 gpio_analog_en[28] 0.000100713
2 *874:gpio_analog_en[28] 0.0017209
3 *109:17 0.0476784
4 *109:15 0.0475777
5 *109:13 0.0508318
6 *109:11 0.0525527
7 *109:11 *169:11 0
8 *109:11 *727:29 0.00315085
9 *109:13 *153:13 0.151398
10 *109:13 *156:13 0
11 *109:13 *326:13 0.00132316
12 *109:13 *326:21 0.126536
13 *109:13 *357:19 0
14 *109:13 *531:13 0
15 *109:13 *533:19 0
16 *109:13 *533:21 0.000603609
17 *109:13 *544:13 0.00117632
18 *109:17 gpio_dm0[28] 0.00110949
19 *109:17 gpio_dm1[28] 0
20 *109:17 *153:17 0
21 *97:11 *109:11 0.000584932
*RES
1 *874:gpio_analog_en[28] *109:11 6.23167 
2 *109:11 *109:13 293.753 
3 *109:13 *109:15 0.5 
4 *109:15 *109:17 106.822 
5 *109:17 gpio_analog_en[28] 0.289433 
*END

*D_NET *110 0.368805
*CONN
*P gpio_analog_en[29] O
*I *874:gpio_analog_en[29] O *D counter_gpio_config_example
*CAP
1 gpio_analog_en[29] 5.17887e-05
2 *874:gpio_analog_en[29] 0
3 *110:10 0.0296586
4 *110:8 0.0296069
5 *110:6 0.0342052
6 *110:4 0.0342052
7 *110:6 *237:9 0.000460735
8 *110:6 *286:21 0.111771
9 *110:6 *372:23 0.000409262
10 *110:6 *372:25 0.0628838
11 *110:6 *553:16 0.000304826
12 *110:10 gpio_dm0[29] 0
13 *110:10 gpio_dm1[29] 0.000228148
14 *110:10 *286:25 0.0650192
*RES
1 *874:gpio_analog_en[29] *110:4 0.5 
2 *110:4 *110:6 212.141 
3 *110:6 *110:8 0.5 
4 *110:8 *110:10 101.228 
5 *110:10 gpio_analog_en[29] 0.148833 
*END

*D_NET *111 0.420297
*CONN
*P gpio_analog_en[2] O
*I *874:gpio_analog_en[2] O *D counter_gpio_config_example
*CAP
1 gpio_analog_en[2] 0.012121
2 *874:gpio_analog_en[2] 0.1798
3 *111:17 0.0303485
4 *111:13 0.198028
5 gpio_analog_en[2] gpio_dm0[2] 0
6 gpio_analog_en[2] gpio_inp_dis[2] 0
7 gpio_analog_en[2] *287:17 0
*RES
1 *874:gpio_analog_en[2] *111:13 37.135 
2 *111:13 *111:17 46.1025 
3 *111:17 gpio_analog_en[2] 27.1782 
*END

*D_NET *112 0.303813
*CONN
*P gpio_analog_en[30] O
*I *874:gpio_analog_en[30] O *D counter_gpio_config_example
*CAP
1 gpio_analog_en[30] 0.00116922
2 *874:gpio_analog_en[30] 0.00134025
3 *112:33 0.0431872
4 *112:31 0.0454281
5 *112:21 0.0547209
6 *112:19 0.0514074
7 *112:13 0.0186417
8 *112:11 0.0198853
9 gpio_analog_en[30] gpio_dm0[30] 0.000491622
10 gpio_analog_en[30] gpio_dm1[30] 0
11 gpio_analog_en[30] *462:15 0.000182889
12 *112:11 *211:11 0.000269571
13 *112:11 *267:11 0.000269887
14 *112:13 *278:13 0.0054634
15 *112:19 *114:29 0
16 *112:33 gpio_analog_pol[30] 0.000864324
17 *112:33 gpio_dm0[30] 0.0121631
18 *112:33 *156:17 0
19 *104:13 *112:13 0.00184101
20 *108:13 *112:13 0.046283
21 *108:19 *112:31 0.000149656
22 *108:21 *112:31 5.43466e-05
*RES
1 *874:gpio_analog_en[30] *112:11 3.52227 
2 *112:11 *112:13 536.625 
3 *112:13 *112:19 1.18367 
4 *112:19 *112:21 103.211 
5 *112:21 *112:31 7.4464 
6 *112:31 *112:33 100.053 
7 *112:33 gpio_analog_en[30] 5.67137 
*END

*D_NET *113 0.214561
*CONN
*P gpio_analog_en[31] O
*I *874:gpio_analog_en[31] O *D counter_gpio_config_example
*CAP
1 gpio_analog_en[31] 0.000102476
2 *874:gpio_analog_en[31] 0.000992803
3 *113:17 0.0470321
4 *113:15 0.0469296
5 *113:13 0.0508491
6 *113:11 0.0518419
7 *113:11 *308:11 0.000183511
8 *113:11 *397:7 0
9 *113:11 *397:9 0
10 *113:13 *290:13 0
11 *113:13 *292:13 0.0164912
12 *113:13 *293:13 0
13 *113:13 *381:13 0
14 *113:13 *557:13 0
15 *113:17 gpio_analog_pol[31] 0
16 *113:17 gpio_dm0[31] 0.000138483
17 *113:17 gpio_dm1[31] 0
18 *113:17 *810:17 0
*RES
1 *874:gpio_analog_en[31] *113:11 2.59 
2 *113:11 *113:13 985.425 
3 *113:13 *113:15 0.5 
4 *113:15 *113:17 103.18 
5 *113:17 gpio_analog_en[31] 0.2945 
*END

*D_NET *114 0.211944
*CONN
*P gpio_analog_en[32] O
*I *874:gpio_analog_en[32] O *D counter_gpio_config_example
*CAP
1 gpio_analog_en[32] 0.00535348
2 *874:gpio_analog_en[32] 0.00189076
3 *114:29 0.0342681
4 *114:27 0.0322534
5 *114:21 0.0367667
6 *114:19 0.0353188
7 gpio_analog_en[32] gpio_dm0[32] 0.00044461
8 gpio_analog_en[32] gpio_dm1[32] 0
9 gpio_analog_en[32] *246:53 0
10 gpio_analog_en[32] *413:17 0.000291325
11 *114:19 *117:15 0.000177213
12 *114:19 *117:17 1.11766e-05
13 *114:19 *185:11 0.000317464
14 *114:19 *346:15 0.000450127
15 *114:19 *367:17 0.00175057
16 *114:19 *367:23 0.000245263
17 *114:19 *742:9 1.57264e-05
18 *114:29 *246:51 0.000124812
19 *114:29 *246:53 0.0600695
20 *104:13 *114:19 0.00219
21 *104:27 *114:19 5.18735e-06
22 *112:19 *114:29 0
*RES
1 *874:gpio_analog_en[32] *114:19 30.3692 
2 *114:19 *114:21 66.4721 
3 *114:21 *114:27 6.95493 
4 *114:27 *114:29 93.9056 
5 *114:29 gpio_analog_en[32] 11.2499 
*END

*D_NET *115 0.198106
*CONN
*P gpio_analog_en[33] O
*I *874:gpio_analog_en[33] O *D counter_gpio_config_example
*CAP
1 gpio_analog_en[33] 0.00774061
2 *874:gpio_analog_en[33] 0.00235295
3 *115:9 0.035661
4 *115:7 0.0302733
5 gpio_analog_en[33] gpio_analog_pol[33] 0
6 gpio_analog_en[33] gpio_dm0[33] 0.00926325
7 gpio_analog_en[33] gpio_dm1[33] 0
8 gpio_analog_en[33] *462:15 0.000138699
9 gpio_analog_en[33] *555:17 0
10 gpio_analog_en[33] *775:9 0.000820557
11 *115:7 *159:7 0.000454789
12 *115:7 *311:7 0.000182312
13 *115:7 *317:7 0
14 *115:9 *154:9 0.00603331
15 *115:9 *204:9 0.0475137
16 *115:9 *283:9 0.00914072
17 *115:9 *309:9 0.00186197
18 *115:9 *377:9 0.00827038
19 *115:9 *377:17 0.00885748
20 *115:9 *402:9 0.000103095
21 *115:9 *779:18 0.0177755
22 *91:9 *115:9 0.00128131
23 *91:17 *115:9 0.00705962
24 *99:9 *115:9 0.000316659
25 *105:17 *115:9 0.00300461
*RES
1 *874:gpio_analog_en[33] *115:7 5.4134 
2 *115:7 *115:9 119.591 
3 *115:9 gpio_analog_en[33] 24.0648 
*END

*D_NET *116 0.128737
*CONN
*P gpio_analog_en[34] O
*I *874:gpio_analog_en[34] O *D counter_gpio_config_example
*CAP
1 gpio_analog_en[34] 0.0102453
2 *874:gpio_analog_en[34] 0.00206593
3 *116:9 0.0269929
4 *116:7 0.0188135
5 gpio_analog_en[34] gpio_dm0[34] 0.0010752
6 gpio_analog_en[34] *160:21 0
7 gpio_analog_en[34] *292:17 0
8 *116:7 *122:15 0.000119011
9 *116:7 *159:7 0.000446364
10 *116:7 *550:7 0
11 *116:9 *244:9 0.0275731
12 *91:9 *116:9 0.00984446
13 *105:17 *116:9 0.0315611
*RES
1 *874:gpio_analog_en[34] *116:7 4.83073 
2 *116:7 *116:9 93.4065 
3 *116:9 gpio_analog_en[34] 21.9187 
*END

*D_NET *117 0.198432
*CONN
*P gpio_analog_en[35] O
*I *874:gpio_analog_en[35] O *D counter_gpio_config_example
*CAP
1 gpio_analog_en[35] 0.0122984
2 *874:gpio_analog_en[35] 0.0198844
3 *117:17 0.0288178
4 *117:15 0.0364038
5 gpio_analog_en[35] gpio_dm0[35] 0
6 gpio_analog_en[35] gpio_dm1[35] 0
7 gpio_analog_en[35] *174:9 0.00395054
8 gpio_analog_en[35] *204:9 0.00121608
9 gpio_analog_en[35] *274:9 0.000707939
10 gpio_analog_en[35] *377:17 0.000365038
11 *117:15 *227:11 0.000309555
12 *117:15 *367:17 0.000158482
13 *117:15 *410:15 0.000158482
14 *117:15 *544:11 0.000302983
15 *117:17 *148:17 0.000101392
16 *117:17 *215:33 0.0037728
17 *117:17 *215:35 0.00352158
18 *117:17 *234:17 0.00123369
19 *117:17 *240:19 0
20 *117:17 *293:17 0.000194841
21 *117:17 *338:17 1.95991e-05
22 *117:17 *381:17 0.0299136
23 *117:17 *391:19 3.92756e-05
24 *117:17 *427:17 0.0535037
25 *117:17 *557:17 6.68625e-06
26 *117:17 *742:9 0
27 *117:17 *829:16 0.00103151
28 *104:13 *117:15 0.000164905
29 *104:27 *117:17 0.000166016
30 *114:19 *117:15 0.000177213
31 *114:19 *117:17 1.11766e-05
*RES
1 *874:gpio_analog_en[35] *117:15 37.1393 
2 *117:15 *117:17 84.2916 
3 *117:17 gpio_analog_en[35] 29.607 
*END

*D_NET *118 0.144717
*CONN
*P gpio_analog_en[36] O
*I *874:gpio_analog_en[36] O *D counter_gpio_config_example
*CAP
1 gpio_analog_en[36] 0.000623388
2 *874:gpio_analog_en[36] 0.0675787
3 *118:20 0.00318729
4 *118:18 0.0701426
5 gpio_analog_en[36] gpio_analog_pol[36] 0
6 gpio_analog_en[36] gpio_dm0[36] 2.53234e-05
7 *118:18 *329:7 0.000109072
8 *118:20 *427:21 0.00305056
*RES
1 *874:gpio_analog_en[36] *118:18 18.5984 
2 *118:18 *118:20 62.325 
3 *118:20 gpio_analog_en[36] 1.73183 
*END

*D_NET *119 0.0663537
*CONN
*P gpio_analog_en[37] O
*I *874:gpio_analog_en[37] O *D counter_gpio_config_example
*CAP
1 gpio_analog_en[37] 0.0149178
2 *874:gpio_analog_en[37] 0.00646277
3 *119:7 0.0213805
4 gpio_analog_en[37] gpio_dm0[37] 0.000136124
5 gpio_analog_en[37] gpio_inp_dis[37] 0.0051025
6 gpio_analog_en[37] *159:9 0.0057415
7 gpio_analog_en[37] *163:11 0
8 gpio_analog_en[37] *202:9 0.00787022
9 gpio_analog_en[37] *365:9 0.00346321
10 *119:7 *212:7 0
11 *119:7 *225:7 0.000138824
12 *119:7 *268:15 0.00114022
*RES
1 *874:gpio_analog_en[37] *119:7 15.6683 
2 *119:7 gpio_analog_en[37] 48.2476 
*END

*D_NET *120 0.0927744
*CONN
*P gpio_analog_en[38] O
*I *874:gpio_analog_en[38] O *D counter_gpio_config_example
*CAP
1 gpio_analog_en[38] 0.00265805
2 *874:gpio_analog_en[38] 0.000631739
3 *120:10 0.0397489
4 *120:8 0.0377226
5 gpio_analog_en[38] gpio_dm0[38] 0
6 gpio_analog_en[38] *431:13 0.00396284
7 gpio_analog_en[38] *693:9 0
8 *120:8 *200:13 2.99336e-05
9 *120:8 *208:30 0.000191358
10 *120:8 *237:9 0.000703431
11 *120:10 *160:15 0.000448929
12 *120:10 *200:11 0.00119813
13 *120:10 *200:13 0.00213878
14 *120:10 *208:30 0.00270828
15 *120:10 *208:38 0
16 *120:10 *232:16 7.78692e-05
17 *120:10 *252:40 0.000132897
18 *120:10 *252:44 0
19 *120:10 *295:24 4.06901e-05
20 *120:10 *558:18 0.000379858
*RES
1 *874:gpio_analog_en[38] *120:8 3.26133 
2 *120:8 *120:10 93.8955 
3 *120:10 gpio_analog_en[38] 21.7444 
*END

*D_NET *121 0.173495
*CONN
*P gpio_analog_en[39] O
*I *874:gpio_analog_en[39] O *D counter_gpio_config_example
*CAP
1 gpio_analog_en[39] 0.00201061
2 *874:gpio_analog_en[39] 0.00465963
3 *121:17 0.0168807
4 *121:15 0.0148701
5 *121:13 0.0229519
6 *121:11 0.0276115
7 gpio_analog_en[39] *253:25 0
8 *121:11 *153:11 0
9 *121:11 *246:31 0.000550794
10 *121:11 *282:11 0
11 *121:13 *213:13 0.0489254
12 *121:13 *310:13 0.00117277
13 *121:17 *476:11 0
14 *121:17 *830:9 0.0338614
*RES
1 *874:gpio_analog_en[39] *121:11 10.9221 
2 *121:11 *121:13 612.105 
3 *121:13 *121:15 0.5 
4 *121:15 *121:17 52.1867 
5 *121:17 gpio_analog_en[39] 35.6375 
*END

*D_NET *122 0.553057
*CONN
*P gpio_analog_en[3] O
*I *874:gpio_analog_en[3] O *D counter_gpio_config_example
*CAP
1 gpio_analog_en[3] 5.39703e-05
2 *874:gpio_analog_en[3] 0.00371255
3 *122:195 0.0896441
4 *122:193 0.149595
5 *122:17 0.0640719
6 *122:15 0.00777955
7 *122:15 *244:9 0.00443359
8 *122:15 *324:7 0.000204264
9 *122:15 *538:7 0
10 *122:15 *550:7 0
11 *122:17 *180:9 0.00269186
12 *122:17 *194:9 0.000806912
13 *122:17 *244:9 0.00103337
14 *122:17 *426:9 0.000950906
15 *122:17 *778:13 0.0209567
16 *122:193 gpio_dm1[36] 0.000389468
17 *122:193 *160:17 0.000225593
18 *122:193 *223:9 0.000106875
19 *122:193 *368:31 0.00033184
20 *122:193 *391:9 0.000146401
21 *122:193 *481:25 0.00023627
22 *122:193 *534:28 0.000269505
23 *122:193 *662:27 0
24 *122:193 *728:19 0.000123126
25 *122:193 *762:13 0.000801986
26 *122:193 *801:13 0.000820064
27 *122:193 *805:19 0.000123126
28 *122:193 *817:19 0.000269505
29 *122:193 *824:10 2.37229e-05
30 *122:195 gpio_dm0[3] 0.000566434
31 *122:195 *124:11 0.00657256
32 *122:195 *166:17 0
33 *122:195 *205:11 0.000564279
34 *122:195 *227:11 0
35 *122:195 *254:17 0.175483
36 *91:9 *122:15 0.00165833
37 *93:15 *122:15 0.000183083
38 *95:7 *122:15 0.00039761
39 *105:9 *122:17 0.0177106
40 *116:7 *122:15 0.000119011
*RES
1 *874:gpio_analog_en[3] *122:15 14.5517 
2 *122:15 *122:17 254.085 
3 *122:17 *122:193 44.9283 
4 *122:193 *122:195 299.101 
5 *122:195 gpio_analog_en[3] 0.1425 
*END

*D_NET *123 0.314459
*CONN
*P gpio_analog_en[40] O
*I *874:gpio_analog_en[40] O *D counter_gpio_config_example
*CAP
1 gpio_analog_en[40] 0.000211416
2 *874:gpio_analog_en[40] 0.00218729
3 *123:21 0.0280232
4 *123:19 0.0280138
5 *123:15 0.0117239
6 *123:9 0.0348276
7 *123:7 0.0254931
8 gpio_analog_en[40] *255:17 0.000107347
9 *123:7 *197:7 0
10 *123:7 *224:7 0.00014109
11 *123:7 *361:7 0.000473757
12 *123:9 *283:9 0.0101473
13 *123:9 *309:9 0.00376873
14 *123:9 *377:9 0
15 *123:9 *402:9 0.00449795
16 *123:9 *460:21 7.52874e-05
17 *123:9 *469:21 3.00027e-05
18 *123:9 *471:11 0
19 *123:9 *779:18 0.000756078
20 *123:15 *212:13 0.0285234
21 *123:15 *300:19 0.000234872
22 *123:21 *300:21 0.0844079
23 *123:21 *340:17 0.00425888
24 *123:21 *433:22 0
25 *123:21 *739:9 0.0151379
26 *91:9 *123:9 0.000200748
27 *99:9 *123:9 0.0312174
*RES
1 *874:gpio_analog_en[40] *123:7 5.09293 
2 *123:7 *123:9 642.705 
3 *123:9 *123:15 47.4183 
4 *123:15 *123:19 4.7825 
5 *123:19 *123:21 776.7 
6 *123:21 gpio_analog_en[40] 6.2 
*END

*D_NET *124 0.269758
*CONN
*P gpio_analog_en[41] O
*I *874:gpio_analog_en[41] O *D counter_gpio_config_example
*CAP
1 gpio_analog_en[41] 0.00180775
2 *874:gpio_analog_en[41] 0.00337345
3 *124:17 0.0365052
4 *124:15 0.0346975
5 *124:13 0.0361468
6 *124:11 0.0395202
7 gpio_analog_en[41] gpio_dm0[41] 0
8 gpio_analog_en[41] gpio_dm1[41] 0
9 gpio_analog_en[41] *256:13 0.00343824
10 *124:11 *205:11 7.99705e-05
11 *124:11 *227:11 0.00114662
12 *124:13 *263:13 0.00717625
13 *124:13 *441:11 0.00771335
14 *124:17 *566:10 0.0781073
15 *124:17 *785:9 0
16 *97:13 *124:13 0.0134726
17 *122:195 *124:11 0.00657256
*RES
1 *874:gpio_analog_en[41] *124:11 11.7961 
2 *124:11 *124:13 701.355 
3 *124:13 *124:15 0.5 
4 *124:15 *124:17 120.533 
5 *124:17 gpio_analog_en[41] 47.1875 
*END

*D_NET *125 0.368657
*CONN
*P gpio_analog_en[42] O
*I *874:gpio_analog_en[42] O *D counter_gpio_config_example
*CAP
1 gpio_analog_en[42] 0.000163089
2 *874:gpio_analog_en[42] 0.00174657
3 *125:21 0.0558373
4 *125:19 0.0565605
5 *125:9 0.0146038
6 *125:7 0.0154641
7 *125:7 *161:7 0.000361658
8 *125:7 *389:7 4.33362e-05
9 *125:9 *133:9 0.00195466
10 *125:9 *431:9 0.0328699
11 *125:9 *778:13 0
12 *125:19 *164:9 0
13 *125:19 *164:13 0.000140102
14 *125:19 *168:19 0.00195246
15 *125:19 *296:9 0
16 *125:19 *300:19 9.02255e-05
17 *125:19 *344:19 1.97826e-05
18 *125:21 *168:21 0.134234
19 *125:21 *212:13 0.031858
20 *125:21 *296:13 0.0198805
21 *125:21 *344:35 0.000876729
22 *125:21 *433:22 0
*RES
1 *874:gpio_analog_en[42] *125:7 4.21893 
2 *125:7 *125:9 381.585 
3 *125:9 *125:19 8.08537 
4 *125:19 *125:21 1439.44 
5 *125:21 gpio_analog_en[42] 4.94 
*END

*D_NET *126 0.26557
*CONN
*P gpio_analog_en[43] O
*I *874:gpio_analog_en[43] O *D counter_gpio_config_example
*CAP
1 gpio_analog_en[43] 5.9122e-05
2 *874:gpio_analog_en[43] 0.000488604
3 *126:21 0.0025307
4 *126:19 0.00247158
5 *126:17 0.0687422
6 *126:15 0.0687422
7 *126:13 0.0154182
8 *126:11 0.0159068
9 *126:11 *222:7 5.36926e-05
10 *126:11 *222:9 0
11 *126:11 *429:7 4.7387e-05
12 *126:11 *429:9 0.000259043
13 *126:13 *463:11 0.0226369
14 *126:17 *432:19 0
15 *126:17 *563:15 0.0641786
16 *126:21 gpio_dm0[43] 0
17 *126:21 *258:21 0.00403518
*RES
1 *874:gpio_analog_en[43] *126:11 2.14404 
2 *126:11 *126:13 369.345 
3 *126:13 *126:15 0.5 
4 *126:15 *126:17 199.776 
5 *126:17 *126:19 0.5 
6 *126:19 *126:21 59.415 
7 *126:21 gpio_analog_en[43] 1.0875 
*END

*D_NET *127 0.346573
*CONN
*P gpio_analog_en[4] O
*I *874:gpio_analog_en[4] O *D counter_gpio_config_example
*CAP
1 gpio_analog_en[4] 0.0019459
2 *874:gpio_analog_en[4] 0.0017248
3 *127:21 0.132805
4 *127:19 0.130906
5 *127:9 0.0115589
6 *127:7 0.0132362
7 gpio_analog_en[4] gpio_analog_pol[4] 5.9286e-06
8 gpio_analog_en[4] gpio_dm0[4] 0.00133769
9 gpio_analog_en[4] gpio_dm1[4] 0
10 gpio_analog_en[4] *833:13 0
11 *127:7 *416:23 0.000379616
12 *127:7 *552:7 0.00033281
13 *127:9 *180:9 0.00476545
14 *127:9 *244:9 0.00827951
15 *127:9 *392:13 0.0157803
16 *127:9 *426:9 0.00642808
17 *127:19 *425:17 4.02901e-05
18 *127:19 *557:17 7.82121e-05
19 *127:21 *347:21 0
20 *127:21 *557:17 0.0109
21 *127:21 *562:9 0
22 *127:21 *804:9 0
23 *93:17 *127:9 0.00539939
24 *93:17 *127:19 1.92979e-05
25 *105:9 *127:9 0.000649758
*RES
1 *874:gpio_analog_en[4] *127:7 4.24807 
2 *127:7 *127:9 53.4407 
3 *127:9 *127:19 3.3579 
4 *127:19 *127:21 2230.19 
5 *127:21 gpio_analog_en[4] 21.2893 
*END

*D_NET *128 0.430953
*CONN
*P gpio_analog_en[5] O
*I *874:gpio_analog_en[5] O *D counter_gpio_config_example
*CAP
1 gpio_analog_en[5] 0.00235168
2 *874:gpio_analog_en[5] 0.00252621
3 *128:21 0.0809962
4 *128:19 0.0786446
5 *128:17 0.0166404
6 *128:15 0.0191666
7 gpio_analog_en[5] gpio_dm0[5] 0.000396456
8 gpio_analog_en[5] *172:17 0
9 gpio_analog_en[5] *260:13 0.000854352
10 *128:15 gpio_slow_sel[3] 0.00129041
11 *128:15 *341:7 3.65739e-05
12 *128:15 *341:9 9.19363e-05
13 *128:15 *357:19 0.000244392
14 *128:15 *544:11 0.00106044
15 *128:17 *243:15 0.00304452
16 *128:17 *346:15 0.00015391
17 *128:17 *376:13 0.0307289
18 *128:17 *749:25 0.00191058
19 *128:21 *172:17 0
20 *128:21 *260:13 0.190815
*RES
1 *874:gpio_analog_en[5] *128:15 7.52873 
2 *128:15 *128:17 58.5225 
3 *128:17 *128:19 0.5 
4 *128:19 *128:21 288.108 
5 *128:21 gpio_analog_en[5] 5.53597 
*END

*D_NET *129 0.574578
*CONN
*P gpio_analog_en[6] O
*I *874:gpio_analog_en[6] O *D counter_gpio_config_example
*CAP
1 gpio_analog_en[6] 5.78082e-05
2 *874:gpio_analog_en[6] 0.000132405
3 *129:13 0.1642
4 *129:11 0.164142
5 *129:9 0.0446557
6 *129:7 0.0447881
7 *129:7 *291:7 4.06815e-05
8 *129:7 *328:7 3.90861e-05
9 *129:9 *132:9 0.0561992
10 *129:9 *135:11 0.00015391
11 *129:9 *139:9 0.00094671
12 *129:9 *141:9 0.00555789
13 *129:9 *144:12 0
14 *129:9 *266:17 0.0118739
15 *129:9 *298:16 3.58182e-05
16 *129:9 *301:9 0.00150032
17 *129:9 *324:17 0.00281026
18 *129:9 *342:19 0.0016124
19 *129:9 *347:9 0.0593475
20 *129:9 *391:9 0.000141443
21 *129:9 *433:8 0.00129681
22 *129:9 *433:10 0
23 *129:9 *532:17 0.00341692
24 *129:9 *532:19 0.00285
25 *129:9 *664:16 0.00282379
26 *129:9 *665:20 0.00181076
27 *129:13 gpio_dm0[6] 0.00414453
28 *129:13 *173:13 0
*RES
1 *874:gpio_analog_en[6] *129:7 0.8686 
2 *129:7 *129:9 167.567 
3 *129:9 *129:11 0.5 
4 *129:11 *129:13 376.013 
5 *129:13 gpio_analog_en[6] 0.152633 
*END

*D_NET *130 0.546573
*CONN
*P gpio_analog_en[7] O
*I *874:gpio_analog_en[7] O *D counter_gpio_config_example
*CAP
1 gpio_analog_en[7] 0.00293223
2 *874:gpio_analog_en[7] 0.00612472
3 *130:17 0.124007
4 *130:15 0.121075
5 *130:13 0.108299
6 *130:11 0.114423
7 gpio_analog_en[7] gpio_dm0[7] 0
8 gpio_analog_en[7] *174:13 0
9 *130:11 *222:9 0
10 *130:11 *310:11 0.00112455
11 *130:11 *549:11 0.000138195
12 *130:11 *716:27 0.00126292
13 *130:13 *177:13 0
14 *130:13 *187:13 0.0239132
15 *130:13 *390:13 0.00425281
16 *130:13 *401:13 0
17 *130:13 *409:13 0.0390208
18 *130:13 *430:17 0
19 *130:17 *306:13 0
*RES
1 *874:gpio_analog_en[7] *130:11 16.9527 
2 *130:11 *130:13 249.652 
3 *130:13 *130:15 0.5 
4 *130:15 *130:17 278.436 
5 *130:17 gpio_analog_en[7] 5.8197 
*END

*D_NET *131 0.559476
*CONN
*P gpio_analog_en[8] O
*I *874:gpio_analog_en[8] O *D counter_gpio_config_example
*CAP
1 gpio_analog_en[8] 0.00400296
2 *874:gpio_analog_en[8] 0.000125902
3 *131:13 0.10885
4 *131:11 0.104847
5 *131:9 0.114723
6 *131:7 0.114849
7 gpio_analog_en[8] gpio_dm0[8] 0.000651486
8 gpio_analog_en[8] *263:17 0.00444133
9 gpio_analog_en[8] *571:26 0
10 *131:7 *281:11 5.53887e-05
11 *131:7 *429:7 4.7387e-05
12 *131:9 *281:11 0.000826305
13 *131:9 *298:16 0.00164207
14 *131:9 *320:17 0
15 *131:9 *364:17 0
16 *131:9 *419:15 0
17 *131:9 *429:7 8.0017e-06
18 *131:9 *429:9 0.00935826
19 *131:9 *540:17 0
20 *131:13 *262:13 0
21 *131:13 *794:13 0.0618337
22 *92:13 *131:13 0
23 *100:13 *131:13 0.0332148
*RES
1 *874:gpio_analog_en[8] *131:7 0.449667 
2 *131:7 *131:9 288.691 
3 *131:9 *131:11 0.5 
4 *131:11 *131:13 280.747 
5 *131:13 gpio_analog_en[8] 11.7537 
*END

*D_NET *132 0.843277
*CONN
*P gpio_analog_en[9] O
*I *874:gpio_analog_en[9] O *D counter_gpio_config_example
*CAP
1 gpio_analog_en[9] 4.47366e-05
2 *874:gpio_analog_en[9] 8.42686e-05
3 *132:13 0.0736227
4 *132:11 0.073578
5 *132:9 0.088157
6 *132:7 0.0882412
7 *132:7 *242:7 2.63551e-05
8 *132:7 *266:15 5.56205e-06
9 *132:7 *301:7 2.77577e-05
10 *132:9 *135:11 0.0287571
11 *132:9 *190:19 0.000252275
12 *132:9 *266:17 0.0189559
13 *132:9 *570:6 0.0282061
14 *132:13 gpio_analog_pol[9] 0.000274571
15 *132:13 gpio_dm0[9] 0.00164223
16 *132:13 *176:21 0.138221
17 *132:13 *264:13 0.246981
18 *132:13 *572:9 0
19 *129:9 *132:9 0.0561992
*RES
1 *874:gpio_analog_en[9] *132:7 0.752067 
2 *132:7 *132:9 276.009 
3 *132:9 *132:11 0.5 
4 *132:11 *132:13 375.896 
5 *132:13 gpio_analog_en[9] 0.128567 
*END

*D_NET *133 0.795685
*CONN
*P gpio_analog_pol[0] O
*I *874:gpio_analog_pol[0] O *D counter_gpio_config_example
*CAP
1 gpio_analog_pol[0] 0.00072953
2 *874:gpio_analog_pol[0] 0.00170554
3 *133:17 0.00236453
4 *133:15 0.001635
5 *133:13 0.0553448
6 *133:11 0.0553448
7 *133:9 0.0144522
8 *133:7 0.0161577
9 gpio_analog_pol[0] gpio_inp_dis[0] 0.00085807
10 gpio_analog_pol[0] *221:17 0.0017101
11 *133:7 *206:11 0.000371086
12 *133:7 *304:7 0.000371086
13 *133:9 *309:9 0
14 *133:9 *392:11 0.000855724
15 *133:9 *392:13 0.00462725
16 *133:9 *426:9 0.0280652
17 *133:9 *431:9 0.00159019
18 *133:9 *569:19 0.00788276
19 *133:9 *666:15 0.000609242
20 *133:9 *778:13 0.00168483
21 *133:13 *155:21 0.242006
22 *133:13 *309:13 0.243863
23 *133:13 *404:15 0.0472201
24 *133:13 *457:23 0.000236591
25 *133:13 *461:21 0.00173471
26 *133:13 *462:19 2.87788e-05
27 *133:13 *529:13 2.63053e-05
28 *133:13 *669:9 0.0530416
29 *133:17 *309:17 0.00376926
30 *133:17 *529:17 0.00363684
31 *93:17 *133:9 0.000602243
32 *105:9 *133:9 0.00120503
33 *125:9 *133:9 0.00195466
*RES
1 *874:gpio_analog_pol[0] *133:7 4.24807 
2 *133:7 *133:9 58.9532 
3 *133:9 *133:11 0.5 
4 *133:11 *133:13 376.703 
5 *133:13 *133:15 0.5 
6 *133:15 *133:17 74.055 
7 *133:17 gpio_analog_pol[0] 3.27337 
*END

*D_NET *134 0.517438
*CONN
*P gpio_analog_pol[10] O
*I *874:gpio_analog_pol[10] O *D counter_gpio_config_example
*CAP
1 gpio_analog_pol[10] 0.00533389
2 *874:gpio_analog_pol[10] 0.000176475
3 *134:13 0.08099
4 *134:11 0.0756561
5 *134:9 0.118508
6 *134:7 0.118685
7 gpio_analog_pol[10] *222:17 0.00771004
8 gpio_analog_pol[10] *530:17 0
9 *134:7 *330:11 4.31109e-05
10 *134:7 *338:11 3.59844e-05
11 *134:9 *321:11 0
12 *134:9 *330:11 0.000349712
13 *134:9 *331:9 0
14 *134:9 *338:11 3.58419e-05
15 *134:13 *136:13 0
16 *134:13 *303:13 0.000725576
17 *134:13 *351:13 0.109188
18 *134:13 *437:13 0
*RES
1 *874:gpio_analog_pol[10] *134:7 0.449667 
2 *134:7 *134:9 284.263 
3 *134:9 *134:11 0.5 
4 *134:11 *134:13 261.367 
5 *134:13 gpio_analog_pol[10] 16.415 
*END

*D_NET *135 0.790048
*CONN
*P gpio_analog_pol[11] O
*I *874:gpio_analog_pol[11] O *D counter_gpio_config_example
*CAP
1 gpio_analog_pol[11] 8.65923e-05
2 *874:gpio_analog_pol[11] 0.000193496
3 *135:15 0.121756
4 *135:13 0.121669
5 *135:11 0.0774384
6 *135:9 0.0776319
7 *135:9 *201:7 0
8 *135:9 *264:7 7.71976e-05
9 *135:9 *665:20 3.86648e-06
10 *135:11 *141:9 0.000148033
11 *135:11 *190:19 0.00204819
12 *135:11 *266:17 0.158747
13 *135:11 *301:9 0.0126149
14 *135:11 *324:17 0
15 *135:11 *532:17 0.000212642
16 *135:11 *664:18 0
17 *135:11 *728:29 0
18 *135:15 gpio_dm0[11] 0
19 *135:15 gpio_inp_dis[11] 0.00078851
20 *135:15 *223:13 0
21 *135:15 *531:17 0.187721
22 *129:9 *135:11 0.00015391
23 *132:9 *135:11 0.0287571
*RES
1 *874:gpio_analog_pol[11] *135:9 1.01933 
2 *135:9 *135:11 2121.71 
3 *135:11 *135:13 0.5 
4 *135:13 *135:15 375.867 
5 *135:15 gpio_analog_pol[11] 0.228633 
*END

*D_NET *136 0.600225
*CONN
*P gpio_analog_pol[12] O
*I *874:gpio_analog_pol[12] O *D counter_gpio_config_example
*CAP
1 gpio_analog_pol[12] 0.00540997
2 *874:gpio_analog_pol[12] 0.00015201
3 *136:13 0.13118
4 *136:11 0.12577
5 *136:9 0.101172
6 *136:7 0.101324
7 gpio_analog_pol[12] *224:13 0.00783336
8 gpio_analog_pol[12] *532:23 0.000551824
9 *136:7 *192:7 3.78657e-05
10 *136:7 *399:7 4.34109e-05
11 *136:7 *399:9 5.68526e-06
12 *136:9 *399:9 0.0364106
13 *136:13 *437:13 0.0527392
14 *136:13 *704:13 0.0375952
15 *89:7 *136:7 0
16 *89:9 *136:9 0
17 *134:13 *136:13 0
*RES
1 *874:gpio_analog_pol[12] *136:7 0.449667 
2 *136:7 *136:9 283.447 
3 *136:9 *136:11 0.5 
4 *136:11 *136:13 349.223 
5 *136:13 gpio_analog_pol[12] 17.3828 
*END

*D_NET *137 0.793417
*CONN
*P gpio_analog_pol[13] O
*I *874:gpio_analog_pol[13] O *D counter_gpio_config_example
*CAP
1 gpio_analog_pol[13] 0.00614441
2 *874:gpio_analog_pol[13] 0.000445765
3 *137:17 0.183453
4 *137:15 0.177308
5 *137:13 0.0805429
6 *137:11 0.0809887
7 gpio_analog_pol[13] gpio_inp_dis[13] 0.000271408
8 gpio_analog_pol[13] *225:13 0.00085188
9 gpio_analog_pol[13] *533:25 0.0118492
10 *137:11 *278:11 2.29848e-05
11 *137:11 *310:11 2.48687e-05
12 *137:11 *815:17 0
13 *137:13 *303:7 6.51359e-05
14 *137:13 *303:9 0.180732
15 *137:13 *422:11 0.000181725
16 *137:17 *138:13 0
17 *137:17 *276:21 0
18 *137:17 *708:13 0.0705359
*RES
1 *874:gpio_analog_pol[13] *137:11 7.19293 
2 *137:11 *137:13 279.164 
3 *137:13 *137:15 0.5 
4 *137:15 *137:17 448.19 
5 *137:17 gpio_analog_pol[13] 21.3804 
*END

*D_NET *138 0.645373
*CONN
*P gpio_analog_pol[14] O
*I *874:gpio_analog_pol[14] O *D counter_gpio_config_example
*CAP
1 gpio_analog_pol[14] 0.00651842
2 *874:gpio_analog_pol[14] 0.000142187
3 *138:20 0
4 *138:13 0.192877
5 *138:11 0.186359
6 *138:9 0.115325
7 *138:7 0.115467
8 gpio_analog_pol[14] gpio_dm0[14] 0
9 gpio_analog_pol[14] gpio_inp_dis[14] 0.00164013
10 gpio_analog_pol[14] *534:34 0.0121553
11 *138:7 *153:11 4.54207e-05
12 *138:7 *236:7 3.39034e-05
13 *138:7 *530:7 0
14 *138:7 *530:9 0
15 *138:9 *153:11 0.000682526
16 *138:9 *530:9 0
17 *138:13 *746:13 0.0141272
18 *137:17 *138:13 0
*RES
1 *874:gpio_analog_pol[14] *138:7 0.449667 
2 *138:7 *138:9 278.203 
3 *138:9 *138:11 0.5 
4 *138:11 *138:13 472.738 
5 *138:13 gpio_analog_pol[14] 21.9016 
6 gpio_analog_pol[14] *138:20 0.0556098 
*END

*D_NET *139 0.721353
*CONN
*P gpio_analog_pol[15] O
*I *874:gpio_analog_pol[15] O *D counter_gpio_config_example
*CAP
1 gpio_analog_pol[15] 7.849e-05
2 *874:gpio_analog_pol[15] 0.000168004
3 *139:17 0.13998
4 *139:15 0.139902
5 *139:13 0.144851
6 *139:11 0.144851
7 *139:9 0.0122868
8 *139:7 0.0124548
9 gpio_analog_pol[15] gpio_dm0[15] 0
10 gpio_analog_pol[15] gpio_inp_dis[15] 0
11 gpio_analog_pol[15] *535:17 0
12 *139:7 *332:7 4.09696e-05
13 *139:7 *438:7 0
14 *139:9 *141:9 0.053665
15 *139:9 *143:9 0.00131275
16 *139:9 *147:9 0.0454651
17 *139:9 *266:17 0.00314308
18 *139:9 *324:17 0
19 *139:9 *344:19 0.00128592
20 *139:9 *347:9 0.00727798
21 *139:9 *347:19 0.000206495
22 *139:9 *389:9 0.00203372
23 *139:9 *532:19 0
24 *139:13 *556:17 0
25 *139:13 *773:11 0
26 *139:13 *788:9 0
27 *139:13 *811:11 0.0114038
28 *139:17 *227:21 0
29 *139:17 *535:17 0
30 *129:9 *139:9 0.00094671
*RES
1 *874:gpio_analog_pol[15] *139:7 0.897733 
2 *139:7 *139:9 671.775 
3 *139:9 *139:11 0.5 
4 *139:11 *139:13 350.395 
5 *139:13 *139:15 0.5 
6 *139:15 *139:17 2541.95 
7 *139:17 gpio_analog_pol[15] 1.35 
*END

*D_NET *140 0.498037
*CONN
*P gpio_analog_pol[16] O
*I *874:gpio_analog_pol[16] O *D counter_gpio_config_example
*CAP
1 gpio_analog_pol[16] 0.0011496
2 *874:gpio_analog_pol[16] 0.000159808
3 *140:13 0.161158
4 *140:11 0.160009
5 *140:9 0.0876532
6 *140:7 0.087813
7 gpio_analog_pol[16] gpio_dm0[16] 0
8 gpio_analog_pol[16] gpio_inp_dis[16] 0
9 *140:7 *245:7 3.52542e-05
10 *140:7 *425:11 3.76245e-05
11 *140:9 *239:11 0
12 *140:9 *299:9 0
13 *140:9 *425:11 2.17038e-05
*RES
1 *874:gpio_analog_pol[16] *140:7 0.449667 
2 *140:7 *140:9 208.312 
3 *140:9 *140:11 0.5 
4 *140:11 *140:13 2904.04 
5 *140:13 gpio_analog_pol[16] 14.4376 
*END

*D_NET *141 0.717543
*CONN
*P gpio_analog_pol[17] O
*I *874:gpio_analog_pol[17] O *D counter_gpio_config_example
*CAP
1 gpio_analog_pol[17] 0.143418
2 *874:gpio_analog_pol[17] 0.000112687
3 *141:15 0.143418
4 *141:13 0.0795259
5 *141:11 0.0795259
6 *141:9 0.0108589
7 *141:7 0.0109716
8 gpio_analog_pol[17] gpio_dm0[17] 0
9 gpio_analog_pol[17] gpio_inp_dis[17] 0
10 *141:7 *193:7 3.81884e-05
11 *141:9 *266:17 0.0305868
12 *141:9 *301:9 0.029292
13 *141:9 *389:9 0.00370479
14 *141:13 *406:13 0.126633
15 *141:13 *537:13 0
16 *141:13 *688:19 5.07926e-05
17 *99:7 *141:7 3.65755e-05
18 *129:9 *141:9 0.00555789
19 *135:11 *141:9 0.000148033
20 *139:9 *141:9 0.053665
*RES
1 *874:gpio_analog_pol[17] *141:7 0.839467 
2 *141:7 *141:9 684.015 
3 *141:9 *141:11 0.5 
4 *141:11 *141:13 253.265 
5 *141:13 *141:15 0.5 
6 *141:15 gpio_analog_pol[17] 2604.62 
*END

*D_NET *142 0.5484
*CONN
*P gpio_analog_pol[18] O
*I *874:gpio_analog_pol[18] O *D counter_gpio_config_example
*CAP
1 gpio_analog_pol[18] 0.144924
2 *874:gpio_analog_pol[18] 0.000328555
3 *142:15 0.144924
4 *142:13 0.0748733
5 *142:11 0.0748733
6 *142:9 0.00406386
7 *142:7 0.00439242
8 gpio_analog_pol[18] gpio_dm0[18] 0
9 gpio_analog_pol[18] gpio_inp_dis[18] 0
10 *142:7 *168:7 0
11 *142:7 *180:7 6.16996e-05
12 *142:9 *143:9 0.00145936
13 *142:9 *190:9 0.0212133
14 *142:9 *391:9 0.00496623
15 *142:9 *391:19 6.28345e-05
16 *142:9 *532:19 0.0238812
17 *142:13 *147:23 0
18 *142:13 *235:19 0
19 *142:13 *323:15 0
20 *142:13 *367:27 0
21 *142:13 *553:18 0.0481212
22 *142:13 *699:9 0
23 *142:13 *743:17 0
24 *142:13 *781:15 0
25 *103:27 *142:13 0.000253562
*RES
1 *874:gpio_analog_pol[18] *142:7 1.1308 
2 *142:7 *142:9 270.405 
3 *142:9 *142:11 0.5 
4 *142:11 *142:13 197.212 
5 *142:13 *142:15 0.5 
6 *142:15 gpio_analog_pol[18] 2630.63 
*END

*D_NET *143 0.559289
*CONN
*P gpio_analog_pol[19] O
*I *874:gpio_analog_pol[19] O *D counter_gpio_config_example
*CAP
1 gpio_analog_pol[19] 0.144301
2 *874:gpio_analog_pol[19] 0.000221848
3 *143:15 0.144301
4 *143:13 0.0399626
5 *143:11 0.0399626
6 *143:9 0.00840953
7 *143:7 0.00863137
8 gpio_analog_pol[19] gpio_dm0[19] 0
9 gpio_analog_pol[19] gpio_inp_dis[19] 0
10 *143:7 *179:15 5.54612e-05
11 *143:7 *548:7 5.38569e-05
12 *143:9 *147:9 0.0414491
13 *143:9 *190:9 0.022786
14 *143:9 *302:9 0.0100604
15 *143:9 *347:19 0.000209741
16 *143:9 *391:9 0.0066873
17 *143:9 *391:19 6.02846e-05
18 *143:9 *532:19 0.00349787
19 *143:13 *360:13 0.0853089
20 *143:13 *796:11 0.000301857
21 *143:13 *809:11 0.000255698
22 *139:9 *143:9 0.00131275
23 *142:9 *143:9 0.00145936
*RES
1 *874:gpio_analog_pol[19] *143:7 1.01427 
2 *143:7 *143:9 500.415 
3 *143:9 *143:11 0.5 
4 *143:11 *143:13 132.595 
5 *143:13 *143:15 0.5 
6 *143:15 gpio_analog_pol[19] 2619.92 
*END

*D_NET *144 0.43346
*CONN
*P gpio_analog_pol[1] O
*I *874:gpio_analog_pol[1] O *D counter_gpio_config_example
*CAP
1 gpio_analog_pol[1] 0.0080266
2 *874:gpio_analog_pol[1] 0.197252
3 *144:12 0.205279
4 gpio_analog_pol[1] gpio_dm0[1] 0
5 gpio_analog_pol[1] gpio_inp_dis[2] 0.00130583
6 gpio_analog_pol[1] *188:13 0.00474285
7 gpio_analog_pol[1] *276:21 0
8 gpio_analog_pol[1] *540:17 0
9 gpio_analog_pol[1] *700:13 0.00106255
10 *144:12 *186:11 0.00534136
11 *144:12 *433:10 0
12 *144:12 *532:17 0.000484367
13 *144:12 *555:11 0.000277078
14 *144:12 *558:18 0.00817458
15 *144:12 *664:18 0.000416754
16 *144:12 *665:22 0.000466011
17 *89:13 gpio_analog_pol[1] 0.00052174
18 *103:11 *144:12 0.000109366
19 *129:9 *144:12 0
*RES
1 *874:gpio_analog_pol[1] *144:12 42.5725 
2 *144:12 gpio_analog_pol[1] 24.9815 
*END

*D_NET *145 0.386359
*CONN
*P gpio_analog_pol[20] O
*I *874:gpio_analog_pol[20] O *D counter_gpio_config_example
*CAP
1 gpio_analog_pol[20] 0.00220672
2 *874:gpio_analog_pol[20] 0.00751527
3 *145:13 0.148635
4 *145:11 0.153944
5 gpio_analog_pol[20] gpio_dm0[20] 0
6 gpio_analog_pol[20] gpio_inp_dis[20] 0
7 gpio_analog_pol[20] *183:21 0.000350294
8 gpio_analog_pol[20] *189:13 0.000681165
9 gpio_analog_pol[20] *233:25 0
10 *145:11 *185:11 0
11 *145:11 *258:11 0
12 *145:11 *408:11 0.00101112
13 *145:11 *787:17 0.0030804
14 *145:13 *400:13 0.0684903
15 *145:13 *805:29 0
16 *101:17 gpio_analog_pol[20] 0.000444621
*RES
1 *874:gpio_analog_pol[20] *145:11 20.4779 
2 *145:11 *145:13 2657.21 
3 *145:13 gpio_analog_pol[20] 19.5403 
*END

*D_NET *146 0.355119
*CONN
*P gpio_analog_pol[21] O
*I *874:gpio_analog_pol[21] O *D counter_gpio_config_example
*CAP
1 gpio_analog_pol[21] 8.17048e-05
2 *874:gpio_analog_pol[21] 0.000956878
3 *146:29 0.146089
4 *146:27 0.146864
5 *146:23 0.00273772
6 *146:13 0.0114763
7 *146:11 0.0105517
8 gpio_analog_pol[21] gpio_dm0[21] 0
9 gpio_analog_pol[21] gpio_inp_dis[21] 0
10 *146:13 *292:13 0.0140981
11 *146:13 *294:13 0.00199471
12 *146:13 *380:13 0.00330426
13 *146:13 *557:13 0
14 *146:13 *562:13 0
15 *146:13 *672:13 0
16 *146:13 *782:29 0
17 *146:23 *205:17 0.000556345
18 *146:23 *705:39 0.00150929
19 *146:23 *740:18 0
20 *146:23 *749:23 0.000132437
21 *146:23 *793:11 0.000948589
22 *146:27 *238:27 3.99991e-05
23 *146:27 *240:19 0.000272875
24 *146:27 *425:17 0.00302195
25 *146:27 *705:39 0.000130891
26 *146:27 *749:19 0.00149745
27 *146:29 *234:21 0
28 *146:29 *464:19 0.00864291
29 *146:29 *542:25 0
30 *90:7 *146:11 0
31 *90:9 *146:11 0
32 *98:11 *146:11 0.000211216
*RES
1 *874:gpio_analog_pol[21] *146:11 2.70653 
2 *146:11 *146:13 247.583 
3 *146:13 *146:23 45.7575 
4 *146:23 *146:27 5.14107 
5 *146:27 *146:29 2643.95 
6 *146:29 gpio_analog_pol[21] 1.35 
*END

*D_NET *147 0.475841
*CONN
*P gpio_analog_pol[22] O
*I *874:gpio_analog_pol[22] O *D counter_gpio_config_example
*CAP
1 gpio_analog_pol[22] 0.150791
2 *874:gpio_analog_pol[22] 0.000219319
3 *147:23 0.156886
4 *147:19 0.00687857
5 *147:9 0.00863801
6 *147:7 0.0080731
7 gpio_analog_pol[22] gpio_dm0[22] 0
8 gpio_analog_pol[22] gpio_inp_dis[22] 0
9 gpio_analog_pol[22] *678:5 0
10 gpio_analog_pol[22] *688:19 0.00241659
11 *147:7 *407:7 0
12 *147:7 *664:16 2.21753e-05
13 *147:9 *302:9 0.000204721
14 *147:9 *344:19 0.00366428
15 *147:9 *347:9 0.00536771
16 *147:19 *225:9 0
17 *147:19 *532:19 0.00129927
18 *147:23 *271:19 0.0154159
19 *147:23 *323:15 0.0215429
20 *147:23 *367:27 0.00177293
21 *147:23 *544:17 0.003226
22 *104:27 *147:23 0.00250898
23 *139:9 *147:9 0.0454651
24 *142:13 *147:23 0
25 *143:9 *147:9 0.0414491
*RES
1 *874:gpio_analog_pol[22] *147:7 0.956 
2 *147:7 *147:9 516.352 
3 *147:9 *147:19 21.6075 
4 *147:19 *147:23 35.5563 
5 *147:23 gpio_analog_pol[22] 2634.71 
*END

*D_NET *148 0.440805
*CONN
*P gpio_analog_pol[23] O
*I *874:gpio_analog_pol[23] O *D counter_gpio_config_example
*CAP
1 gpio_analog_pol[23] 0.0020851
2 *874:gpio_analog_pol[23] 0.00217185
3 *148:21 0.14873
4 *148:19 0.146644
5 *148:17 0.00714546
6 *148:15 0.00714546
7 *148:13 0.00311973
8 *148:11 0.00529158
9 gpio_analog_pol[23] gpio_inp_dis[23] 0
10 gpio_analog_pol[23] *236:17 0
11 *148:11 *261:7 4.31109e-05
12 *148:11 *261:9 0.000452113
13 *148:11 *531:11 0
14 *148:13 *149:13 0.000203965
15 *148:13 *205:13 0.0067657
16 *148:13 *282:13 6.1121e-05
17 *148:13 *415:13 0.000943386
18 *148:13 *479:11 0
19 *148:13 *716:23 0
20 *148:17 *347:21 0.0510768
21 *148:17 *391:21 0.0510756
22 *148:17 *427:17 0.0073598
23 *148:21 *544:21 0
24 *106:11 *148:11 0.000389237
25 *117:17 *148:17 0.000101392
*RES
1 *874:gpio_analog_pol[23] *148:11 5.3868 
2 *148:11 *148:13 84.3825 
3 *148:13 *148:15 2 
4 *148:15 *148:17 466.545 
5 *148:17 *148:19 2 
6 *148:19 *148:21 2605.61 
7 *148:21 gpio_analog_pol[23] 36.0975 
*END

*D_NET *149 0.616792
*CONN
*P gpio_analog_pol[24] O
*I *874:gpio_analog_pol[24] O *D counter_gpio_config_example
*CAP
1 gpio_analog_pol[24] 0.000100713
2 *874:gpio_analog_pol[24] 0.00175243
3 *149:25 0.0316798
4 *149:23 0.0315791
5 *149:21 0.0845793
6 *149:19 0.0846209
7 *149:13 0.0449512
8 *149:11 0.0466621
9 *149:11 *165:7 4.23087e-05
10 *149:11 *165:9 0.000445051
11 *149:11 *270:11 0.000487359
12 *149:13 *240:13 0
13 *149:13 *246:31 0.000586661
14 *149:13 *246:37 0.0133211
15 *149:13 *282:13 0.0243536
16 *149:13 *415:13 0.000509381
17 *149:13 *479:11 0
18 *149:13 *481:11 0
19 *149:13 *738:21 0
20 *149:21 *326:21 0
21 *149:21 *330:21 0.0384587
22 *149:21 *330:31 0.00092049
23 *149:21 *415:13 0.112964
24 *149:25 gpio_dm0[24] 0.00046516
25 *149:25 gpio_inp_dis[24] 0
26 *149:25 *237:13 0.0642119
27 *149:25 *314:13 0
28 *106:21 *149:21 0.0338968
29 *148:13 *149:13 0.000203965
*RES
1 *874:gpio_analog_pol[24] *149:11 5.212 
2 *149:11 *149:13 893.625 
3 *149:13 *149:19 1.06713 
4 *149:19 *149:21 351.462 
5 *149:21 *149:23 0.5 
6 *149:23 *149:25 105.773 
7 *149:25 gpio_analog_pol[24] 0.289433 
*END

*D_NET *150 0.489513
*CONN
*P gpio_analog_pol[25] O
*I *874:gpio_analog_pol[25] O *D counter_gpio_config_example
*CAP
1 gpio_analog_pol[25] 0.00508863
2 *874:gpio_analog_pol[25] 0.0036915
3 *150:9 0.126864
4 *150:7 0.125467
5 gpio_analog_pol[25] gpio_dm0[25] 0.000485383
6 gpio_analog_pol[25] gpio_inp_dis[25] 0
7 gpio_analog_pol[25] *238:33 0.00836546
8 *150:7 *202:7 0.00133156
9 *150:7 *274:7 0.000673563
10 *150:7 *547:7 0
11 *150:9 *152:17 0
12 *150:9 *193:17 0
13 *150:9 *201:9 0
14 *150:9 *220:15 0.00242254
15 *150:9 *288:9 0
16 *150:9 *328:9 0.198945
17 *150:9 *379:13 0
18 *150:9 *383:11 0
19 *150:9 *396:15 0.000249785
20 *150:9 *469:11 0.0159286
21 *106:25 gpio_analog_pol[25] 0
*RES
1 *874:gpio_analog_pol[25] *150:7 10.7739 
2 *150:7 *150:9 433.289 
3 *150:9 gpio_analog_pol[25] 15.8843 
*END

*D_NET *151 0.311437
*CONN
*P gpio_analog_pol[26] O
*I *874:gpio_analog_pol[26] O *D counter_gpio_config_example
*CAP
1 gpio_analog_pol[26] 0.00914794
2 *874:gpio_analog_pol[26] 0.00263555
3 *151:9 0.120691
4 *151:7 0.114179
5 gpio_analog_pol[26] gpio_dm0[26] 0.000235537
6 gpio_analog_pol[26] gpio_inp_dis[26] 0.000321938
7 gpio_analog_pol[26] *239:25 0
8 *151:7 *174:7 0.000503996
9 *151:7 *396:15 0.000534011
10 *151:9 *325:9 0.0375839
11 *151:9 *821:13 0.0256034
12 *95:9 *151:9 0
13 *102:9 *151:9 0
*RES
1 *874:gpio_analog_pol[26] *151:7 6.31653 
2 *151:7 *151:9 2085.5 
3 *151:9 gpio_analog_pol[26] 26.3892 
*END

*D_NET *152 0.369591
*CONN
*P gpio_analog_pol[27] O
*I *874:gpio_analog_pol[27] O *D counter_gpio_config_example
*CAP
1 gpio_analog_pol[27] 0.00697501
2 *874:gpio_analog_pol[27] 0.00539721
3 *152:17 0.0880975
4 *152:15 0.081268
5 *152:9 0.0183053
6 *152:7 0.023557
7 gpio_analog_pol[27] gpio_dm0[27] 0
8 gpio_analog_pol[27] gpio_inp_dis[27] 9.37479e-05
9 gpio_analog_pol[27] *240:28 0
10 *152:7 *180:7 0.000373833
11 *152:7 *189:7 0
12 *152:7 *233:7 0.000165299
13 *152:9 *379:13 0.018364
14 *152:9 *396:17 0.0461247
15 *152:15 gpio_holdover[33] 0
16 *152:15 *203:17 0.000262709
17 *152:17 *288:9 0.0740333
18 *152:17 *396:17 0.00657361
19 *108:25 gpio_analog_pol[27] 0
20 *150:9 *152:17 0
*RES
1 *874:gpio_analog_pol[27] *152:7 11.3275 
2 *152:7 *152:9 521.325 
3 *152:9 *152:15 1.41673 
4 *152:15 *152:17 219.506 
5 *152:17 gpio_analog_pol[27] 15.4334 
*END

*D_NET *153 0.472942
*CONN
*P gpio_analog_pol[28] O
*I *874:gpio_analog_pol[28] O *D counter_gpio_config_example
*CAP
1 gpio_analog_pol[28] 0.00210212
2 *874:gpio_analog_pol[28] 0.0020893
3 *153:17 0.0468332
4 *153:15 0.0447311
5 *153:13 0.0680154
6 *153:11 0.0701047
7 gpio_analog_pol[28] gpio_dm0[28] 0.000669628
8 gpio_analog_pol[28] gpio_inp_dis[28] 0
9 *153:11 *246:31 0.000555432
10 *153:13 *281:21 0
11 *153:13 *286:15 0.00893462
12 *153:13 *357:19 0
13 *153:13 *423:13 0.0272492
14 *153:13 *444:11 0.0213707
15 *153:13 *446:11 0.0236399
16 *153:17 gpio_dm0[28] 0.00452023
17 *109:13 *153:13 0.151398
18 *109:17 *153:17 0
19 *121:11 *153:11 0
20 *138:7 *153:11 4.54207e-05
21 *138:9 *153:11 0.000682526
*RES
1 *874:gpio_analog_pol[28] *153:11 6.3482 
2 *153:11 *153:13 285.139 
3 *153:13 *153:15 0.5 
4 *153:15 *153:17 102.587 
5 *153:17 gpio_analog_pol[28] 4.76203 
*END

*D_NET *154 0.356014
*CONN
*P gpio_analog_pol[29] O
*I *874:gpio_analog_pol[29] O *D counter_gpio_config_example
*CAP
1 gpio_analog_pol[29] 0.00784742
2 *874:gpio_analog_pol[29] 0.0024569
3 *154:24 0
4 *154:17 0.0431884
5 *154:15 0.0355114
6 *154:9 0.0132776
7 *154:7 0.0155641
8 gpio_analog_pol[29] gpio_dm0[29] 0.00752658
9 gpio_analog_pol[29] *286:25 0
10 *154:7 gpio_inp_dis[37] 0
11 *154:7 *360:7 0.000152571
12 *154:7 *395:7 0
13 *154:7 *535:7 0.000201332
14 *154:9 *274:9 0
15 *154:9 *283:9 0.000465446
16 *154:9 *377:9 0.0328817
17 *154:9 *471:11 0.00178542
18 *154:15 *381:17 0.000139604
19 *154:17 *174:9 0.00476393
20 *154:17 *274:9 0.00166452
21 *154:17 *283:17 0.102447
22 *154:17 *377:17 0.080107
23 *105:17 *154:17 0
24 *115:9 *154:9 0.00603331
*RES
1 *874:gpio_analog_pol[29] *154:7 5.38427 
2 *154:7 *154:9 382.605 
3 *154:9 *154:15 1.41673 
4 *154:15 *154:17 208.136 
5 *154:17 gpio_analog_pol[29] 20.7375 
6 gpio_analog_pol[29] *154:24 0.0690909 
*END

*D_NET *155 0.613501
*CONN
*P gpio_analog_pol[2] O
*I *874:gpio_analog_pol[2] O *D counter_gpio_config_example
*CAP
1 gpio_analog_pol[2] 0.000805955
2 *874:gpio_analog_pol[2] 0.000481933
3 *155:25 0.0136654
4 *155:23 0.0128594
5 *155:21 0.0725661
6 *155:19 0.0727498
7 *155:9 0.00207435
8 *155:7 0.00237257
9 gpio_analog_pol[2] gpio_dm0[2] 0.00164173
10 gpio_analog_pol[2] gpio_inp_dis[2] 0.000981265
11 *155:7 *328:7 0.000130569
12 *155:7 *383:7 0.000130569
13 *155:9 *164:9 0.00557526
14 *155:9 *212:9 0.00821111
15 *155:9 *384:9 0.00148148
16 *155:19 *309:13 0.000246843
17 *155:19 *461:21 3.59531e-06
18 *155:19 *471:15 0.000246843
19 *155:21 *457:23 0.00955999
20 *155:21 *458:23 0.00887243
21 *155:21 *462:19 0.0443736
22 *155:21 *529:13 0.0330748
23 *155:21 *827:9 0.0384941
24 *155:25 gpio_dm0[1] 0
25 *155:25 gpio_dm0[2] 0
26 *155:25 gpio_dm1[1] 0
27 *155:25 gpio_dm2[1] 0
28 *155:25 *309:17 0.00448622
29 *155:25 *342:25 0.0364094
30 *133:13 *155:21 0.242006
*RES
1 *874:gpio_analog_pol[2] *155:7 1.77173 
2 *155:7 *155:9 95.475 
3 *155:9 *155:19 3.5226 
4 *155:19 *155:21 373.644 
5 *155:21 *155:23 0.5 
6 *155:23 *155:25 412.695 
7 *155:25 gpio_analog_pol[2] 3.5267 
*END

*D_NET *156 0.367438
*CONN
*P gpio_analog_pol[30] O
*I *874:gpio_analog_pol[30] O *D counter_gpio_config_example
*CAP
1 gpio_analog_pol[30] 0.00492335
2 *874:gpio_analog_pol[30] 0.00221288
3 *156:17 0.047955
4 *156:15 0.0430316
5 *156:13 0.0269085
6 *156:11 0.0291214
7 gpio_analog_pol[30] gpio_dm0[30] 0
8 gpio_analog_pol[30] gpio_inp_dis[30] 0.000491381
9 gpio_analog_pol[30] *413:17 0.000291325
10 *156:11 *326:11 0
11 *156:11 *334:11 0.00015023
12 *156:11 *435:7 4.14661e-05
13 *156:11 *435:9 0.000480455
14 *156:13 *415:13 0.105953
15 *156:13 *531:13 0.103967
16 *156:13 *533:19 0.00104571
17 *108:19 *156:17 0
18 *109:13 *156:13 0
19 *112:33 gpio_analog_pol[30] 0.000864324
20 *112:33 *156:17 0
*RES
1 *874:gpio_analog_pol[30] *156:11 5.41593 
2 *156:11 *156:13 199.523 
3 *156:13 *156:15 0.5 
4 *156:15 *156:17 95.5371 
5 *156:17 gpio_analog_pol[30] 11.1992 
*END

*D_NET *157 0.262796
*CONN
*P gpio_analog_pol[31] O
*I *874:gpio_analog_pol[31] O *D counter_gpio_config_example
*CAP
1 gpio_analog_pol[31] 0.00538263
2 *874:gpio_analog_pol[31] 0.00676177
3 *157:17 0.0372226
4 *157:15 0.0320266
5 *157:9 0.00482926
6 *157:7 0.0114044
7 gpio_analog_pol[31] gpio_dm0[31] 0
8 gpio_analog_pol[31] gpio_inp_dis[31] 0.000225015
9 gpio_analog_pol[31] *245:13 0
10 *157:7 gpio_slow_sel[37] 0
11 *157:7 *421:7 0
12 *157:7 *440:7 0
13 *157:7 *471:9 0.00108786
14 *157:9 *161:9 0.00462367
15 *157:9 *280:9 0.000835148
16 *157:9 *366:9 0.0019654
17 *157:9 *413:9 0.00583618
18 *157:15 gpio_analog_sel[36] 0.000336342
19 *157:17 *289:9 0.0577232
20 *157:17 *336:9 0.00598374
21 *157:17 *413:17 0.0865523
22 *113:17 gpio_analog_pol[31] 0
*RES
1 *874:gpio_analog_pol[31] *157:7 14.8235 
2 *157:7 *157:9 127.095 
3 *157:9 *157:15 1.53327 
4 *157:15 *157:17 192.374 
5 *157:17 gpio_analog_pol[31] 11.5979 
*END

*D_NET *158 0.239136
*CONN
*P gpio_analog_pol[32] O
*I *874:gpio_analog_pol[32] O *D counter_gpio_config_example
*CAP
1 gpio_analog_pol[32] 0.000312398
2 *874:gpio_analog_pol[32] 0.000139523
3 *158:15 0.0441132
4 *158:13 0.0438008
5 *158:11 0.0227463
6 *158:9 0.0228858
7 gpio_analog_pol[32] gpio_dm0[32] 0.000141658
8 gpio_analog_pol[32] gpio_inp_dis[32] 0
9 gpio_analog_pol[32] *726:21 0.000423568
10 *158:9 *273:7 3.31358e-05
11 *158:9 *273:9 3.837e-06
12 *158:9 *409:11 4.97507e-05
13 *158:11 *195:9 0.00596967
14 *158:11 *234:13 0.031001
15 *158:11 *236:9 0.000703327
16 *158:11 *245:9 0.0617944
17 *158:11 *543:13 0.000748773
18 *158:15 gpio_inp_dis[32] 0.00378879
19 *158:15 *246:53 0
20 *158:15 *332:15 0.000480488
*RES
1 *874:gpio_analog_pol[32] *158:9 1.25137 
2 *158:9 *158:11 784.74 
3 *158:11 *158:13 0.5 
4 *158:13 *158:15 101.305 
5 *158:15 gpio_analog_pol[32] 6.26672 
*END

*D_NET *159 0.178872
*CONN
*P gpio_analog_pol[33] O
*I *874:gpio_analog_pol[33] O *D counter_gpio_config_example
*CAP
1 gpio_analog_pol[33] 0.00447746
2 *874:gpio_analog_pol[33] 0.00724655
3 *159:9 0.0240301
4 *159:7 0.0267992
5 gpio_analog_pol[33] gpio_dm0[33] 0
6 gpio_analog_pol[33] *555:17 0.0016382
7 *159:9 *202:9 0.0633413
8 *159:9 *248:9 0
9 *159:9 *289:9 0
10 *159:9 *336:9 0.0350782
11 *159:9 *361:9 0.00261925
12 *159:9 *365:9 0.000988881
13 *159:9 *413:17 0.0060098
14 gpio_analog_en[33] gpio_analog_pol[33] 0
15 gpio_analog_en[37] *159:9 0.0057415
16 *115:7 *159:7 0.000454789
17 *116:7 *159:7 0.000446364
*RES
1 *874:gpio_analog_pol[33] *159:7 15.7849 
2 *159:7 *159:9 119.505 
3 *159:9 gpio_analog_pol[33] 10.9798 
*END

*D_NET *160 0.217358
*CONN
*P gpio_analog_pol[34] O
*I *874:gpio_analog_pol[34] O *D counter_gpio_config_example
*CAP
1 gpio_analog_pol[34] 0.0021257
2 *874:gpio_analog_pol[34] 0.00258648
3 *160:21 0.0467338
4 *160:19 0.0446081
5 *160:17 0.0256418
6 *160:15 0.0282283
7 gpio_analog_pol[34] gpio_dm0[34] 0.000656562
8 gpio_analog_pol[34] *556:22 1.48774e-05
9 *160:15 *200:11 0.000759749
10 *160:15 *256:7 4.8733e-05
11 *160:15 *339:33 2.87821e-05
12 *160:15 *405:7 4.7387e-05
13 *160:15 *405:9 8.0017e-06
14 *160:17 gpio_dm1[36] 2.87821e-05
15 *160:17 *200:11 0.000798502
16 *160:17 *200:13 0.0477345
17 *160:17 *368:31 0.00776505
18 *160:17 *368:55 0.0031227
19 *160:17 *368:57 0.00330126
20 *160:17 *378:15 0
21 *160:17 *378:19 0.000176679
22 *160:17 *427:13 0.000318962
23 *160:17 *727:25 0.000850566
24 *160:21 gpio_dm0[34] 0.000983571
25 gpio_analog_en[34] *160:21 0
26 *104:27 *160:17 0.00011449
27 *120:10 *160:15 0.000448929
28 *122:193 *160:17 0.000225593
*RES
1 *874:gpio_analog_pol[34] *160:15 5.3221 
2 *160:15 *160:17 94.5111 
3 *160:17 *160:19 0.5 
4 *160:19 *160:21 97.4599 
5 *160:21 gpio_analog_pol[34] 4.7215 
*END

*D_NET *161 0.152371
*CONN
*P gpio_analog_pol[35] O
*I *874:gpio_analog_pol[35] O *D counter_gpio_config_example
*CAP
1 gpio_analog_pol[35] 0.00381755
2 *874:gpio_analog_pol[35] 0.0061075
3 *161:9 0.0222275
4 *161:7 0.0245174
5 gpio_analog_pol[35] gpio_dm0[35] 0.00706706
6 gpio_analog_pol[35] gpio_inp_dis[35] 0.000171096
7 gpio_analog_pol[35] *413:15 0.00040063
8 *161:7 *272:7 0.00127273
9 *161:7 *393:7 0
10 *161:9 *206:11 0.0169282
11 *161:9 *242:9 0
12 *161:9 *248:9 0.044098
13 *161:9 *280:9 0.00803446
14 *161:9 *307:9 0
15 *161:9 *366:9 0.00338629
16 *161:9 *413:9 0.00935745
17 *125:7 *161:7 0.000361658
18 *157:9 *161:9 0.00462367
*RES
1 *874:gpio_analog_pol[35] *161:7 14.8526 
2 *161:7 *161:9 83.1567 
3 *161:9 gpio_analog_pol[35] 11.7056 
*END

*D_NET *162 0.11781
*CONN
*P gpio_analog_pol[36] O
*I *874:gpio_analog_pol[36] O *D counter_gpio_config_example
*CAP
1 gpio_analog_pol[36] 0.0085797
2 *874:gpio_analog_pol[36] 0.00415635
3 *162:9 0.0302117
4 *162:7 0.0257884
5 gpio_analog_pol[36] gpio_dm0[36] 0
6 gpio_analog_pol[36] gpio_inp_dis[36] 0.000266288
7 gpio_analog_pol[36] *193:15 0
8 *162:7 *340:7 0
9 *162:7 *352:7 0.000225836
10 *162:7 *404:9 0
11 *162:9 *178:17 0.00306411
12 *162:9 *179:15 0.00284644
13 *162:9 *193:9 0.000417767
14 *162:9 *268:17 0.0053605
15 *162:9 *284:9 0.00417514
16 *162:9 *328:9 0
17 *162:9 *333:9 0.00562683
18 *162:9 *374:9 0.025893
19 *162:9 *418:9 0.00119757
20 gpio_analog_en[36] gpio_analog_pol[36] 0
*RES
1 *874:gpio_analog_pol[36] *162:7 9.49207 
2 *162:7 *162:9 82.2953 
3 *162:9 gpio_analog_pol[36] 17.6982 
*END

*D_NET *163 0.0690069
*CONN
*P gpio_analog_pol[37] O
*I *874:gpio_analog_pol[37] O *D counter_gpio_config_example
*CAP
1 gpio_analog_pol[37] 0.00534333
2 *874:gpio_analog_pol[37] 0.00598974
3 *163:11 0.0183841
4 *163:7 0.0190305
5 gpio_analog_pol[37] gpio_dm0[37] 0
6 gpio_analog_pol[37] gpio_inp_dis[37] 0.0014084
7 gpio_analog_pol[37] *295:24 0
8 *163:7 *279:7 0
9 *163:7 *284:7 0.00116189
10 *163:11 *202:9 0
11 *163:11 *248:9 0.016018
12 *163:11 *280:9 0.00120774
13 *163:11 *291:9 0
14 *163:11 *307:9 0
15 gpio_analog_en[37] *163:11 0
16 *91:7 *163:7 0.00046327
*RES
1 *874:gpio_analog_pol[37] *163:7 15.0857 
2 *163:7 *163:11 43.6047 
3 *163:11 gpio_analog_pol[37] 11.3766 
*END

*D_NET *164 0.162377
*CONN
*P gpio_analog_pol[38] O
*I *874:gpio_analog_pol[38] O *D counter_gpio_config_example
*CAP
1 gpio_analog_pol[38] 0.000137286
2 *874:gpio_analog_pol[38] 0.000441207
3 *164:13 0.0106232
4 *164:11 0.0104859
5 *164:9 0.00614322
6 *164:7 0.00658443
7 gpio_analog_pol[38] gpio_dm0[38] 0.000236399
8 gpio_analog_pol[38] *560:19 0
9 *164:7 *220:7 0.000126587
10 *164:7 *359:7 0.000126587
11 *164:9 *212:9 0.00824229
12 *164:9 *384:9 0.0127884
13 *164:13 *168:19 2.42445e-05
14 *164:13 *168:21 0.000162008
15 *164:13 *212:13 0.000433972
16 *164:13 *296:13 0.0447618
17 *164:13 *300:19 0.000298928
18 *164:13 *300:21 0.00438831
19 *164:13 *340:17 0.0458005
20 *164:13 *344:33 8.19515e-05
21 *164:13 *344:35 0.00477435
22 *125:19 *164:9 0
23 *125:19 *164:13 0.000140102
24 *155:9 *164:9 0.00557526
*RES
1 *874:gpio_analog_pol[38] *164:7 1.71347 
2 *164:7 *164:9 232.665 
3 *164:9 *164:11 0.5 
4 *164:11 *164:13 71.5895 
5 *164:13 gpio_analog_pol[38] 3.6875 
*END

*D_NET *165 0.110846
*CONN
*P gpio_analog_pol[39] O
*I *874:gpio_analog_pol[39] O *D counter_gpio_config_example
*CAP
1 gpio_analog_pol[39] 0.00285907
2 *874:gpio_analog_pol[39] 0.000149498
3 *165:13 0.0289456
4 *165:11 0.0260866
5 *165:9 0.0238452
6 *165:7 0.0239947
7 gpio_analog_pol[39] *253:25 0
8 gpio_analog_pol[39] *431:13 0.00435809
9 gpio_analog_pol[39] *561:25 0
10 gpio_analog_pol[39] *693:9 0
11 *165:7 *368:31 3.7719e-05
12 *165:9 *214:17 0
13 *165:9 *270:11 0
14 *165:9 *368:31 8.16197e-05
15 *165:9 *551:9 0
16 *149:11 *165:7 4.23087e-05
17 *149:11 *165:9 0.000445051
*RES
1 *874:gpio_analog_pol[39] *165:7 0.449667 
2 *165:7 *165:9 56.2362 
3 *165:9 *165:11 0.5 
4 *165:11 *165:13 466.755 
5 *165:13 gpio_analog_pol[39] 22.4762 
*END

*D_NET *166 0.287281
*CONN
*P gpio_analog_pol[3] O
*I *874:gpio_analog_pol[3] O *D counter_gpio_config_example
*CAP
1 gpio_analog_pol[3] 6.36891e-05
2 *874:gpio_analog_pol[3] 0.0162363
3 *166:17 0.11016
4 *166:15 0.12487
5 *166:11 0.0310105
6 *166:11 *170:13 0
7 *166:15 *269:13 0
8 *166:17 gpio_dm0[3] 0
9 *166:17 *562:17 0
10 *92:7 *166:11 4.41342e-05
11 *92:9 *166:11 0.00460351
12 *108:11 *166:11 0.000292918
13 *122:195 *166:17 0
*RES
1 *874:gpio_analog_pol[3] *166:11 42.2405 
2 *166:11 *166:15 36.714 
3 *166:15 *166:17 258.314 
4 *166:17 gpio_analog_pol[3] 0.183033 
*END

*D_NET *167 0.161801
*CONN
*P gpio_analog_pol[40] O
*I *874:gpio_analog_pol[40] O *D counter_gpio_config_example
*CAP
1 gpio_analog_pol[40] 0.000201237
2 *874:gpio_analog_pol[40] 0.000149414
3 *167:13 0.0387774
4 *167:11 0.0385761
5 *167:9 0.0346156
6 *167:7 0.034765
7 gpio_analog_pol[40] *212:13 0.000368709
8 gpio_analog_pol[40] *563:19 6.27601e-05
9 *167:7 *286:15 4.90961e-05
10 *167:7 *399:7 4.34109e-05
11 *167:9 *182:11 0
12 *167:9 *286:15 0.000672202
13 *167:9 *399:7 5.68526e-06
14 *167:9 *399:9 0.0135141
15 *167:13 *255:13 0
16 *167:13 *255:17 0
17 *167:13 *563:19 0
*RES
1 *874:gpio_analog_pol[40] *167:7 0.449667 
2 *167:7 *167:9 97.3142 
3 *167:9 *167:11 0.5 
4 *167:11 *167:13 691.155 
5 *167:13 gpio_analog_pol[40] 2.27743 
*END

*D_NET *168 0.43873
*CONN
*P gpio_analog_pol[41] O
*I *874:gpio_analog_pol[41] O *D counter_gpio_config_example
*CAP
1 gpio_analog_pol[41] 0.000213735
2 *874:gpio_analog_pol[41] 0.00319239
3 *168:21 0.0213515
4 *168:19 0.0234652
5 *168:9 0.0232461
6 *168:7 0.0241111
7 gpio_analog_pol[41] gpio_dm0[41] 0
8 gpio_analog_pol[41] *564:14 0
9 *168:7 *215:7 0.000571697
10 *168:9 *349:9 0.00660868
11 *168:9 *457:21 1.92979e-05
12 *168:9 *529:9 0.0212444
13 *168:9 *821:13 0
14 *168:19 *296:9 0
15 *168:19 *340:13 7.46502e-05
16 *168:19 *344:33 0.000129469
17 *168:21 *212:13 0.0133654
18 *168:21 *296:13 0.00681738
19 *168:21 *344:35 0.117878
20 *168:21 *433:22 0
21 *102:9 *168:9 0.040067
22 *125:19 *168:19 0.00195246
23 *125:21 *168:21 0.134234
24 *142:7 *168:7 0
25 *164:13 *168:19 2.42445e-05
26 *164:13 *168:21 0.000162008
*RES
1 *874:gpio_analog_pol[41] *168:7 6.84093 
2 *168:7 *168:9 674.325 
3 *168:9 *168:19 11.4868 
4 *168:19 *168:21 1235.2 
5 *168:21 gpio_analog_pol[41] 5.66 
*END

*D_NET *169 0.240845
*CONN
*P gpio_analog_pol[42] O
*I *874:gpio_analog_pol[42] O *D counter_gpio_config_example
*CAP
1 gpio_analog_pol[42] 8.44018e-05
2 *874:gpio_analog_pol[42] 0.00282007
3 *169:25 0.00344252
4 *169:23 0.00342091
5 *169:21 0.006624
6 *169:19 0.00656121
7 *169:17 0.0573279
8 *169:15 0.0573279
9 *169:13 0.0134711
10 *169:11 0.0162912
11 *169:11 *362:7 5.42305e-05
12 *169:11 *362:9 0.000816309
13 *169:11 *727:29 0
14 *169:13 *214:13 0.0102204
15 *169:13 *419:15 0.000876408
16 *169:13 *674:13 0
17 *169:13 *749:25 0.0328632
18 *169:17 *874:gpio_in[10] 0.00456874
19 *169:17 *443:15 0.0239069
20 *169:25 gpio_dm0[42] 0.000167024
21 *169:25 gpio_inp_dis[42] 0
22 *109:11 *169:11 0
*RES
1 *874:gpio_analog_pol[42] *169:11 7.42613 
2 *169:11 *169:13 421.875 
3 *169:13 *169:15 0.5 
4 *169:15 *169:17 160.388 
5 *169:17 *169:19 0.5 
6 *169:19 *169:21 116.25 
7 *169:21 *169:23 1.14 
8 *169:23 *169:25 62.1 
9 *169:25 gpio_analog_pol[42] 1.5525 
*END

*D_NET *170 0.230937
*CONN
*P gpio_analog_pol[43] O
*I *874:gpio_analog_pol[43] O *D counter_gpio_config_example
*CAP
1 gpio_analog_pol[43] 5.9122e-05
2 *874:gpio_analog_pol[43] 0.00459145
3 *170:21 0.0271242
4 *170:19 0.027065
5 *170:17 0.0790557
6 *170:15 0.0790557
7 *170:13 0.00459145
8 *170:13 *214:13 0.00373418
9 *170:13 *337:11 0.000139496
10 *170:13 *674:13 0
11 *170:17 *221:11 0.00522831
12 *170:17 *385:9 0
13 *170:17 *551:9 0
14 *170:21 gpio_dm0[43] 0
15 *170:21 gpio_inp_dis[43] 0
16 *108:11 *170:13 0.000292397
17 *166:11 *170:13 0
*RES
1 *874:gpio_analog_pol[43] *170:13 49.9777 
2 *170:13 *170:15 0.5 
3 *170:15 *170:17 195.231 
4 *170:17 *170:19 0.5 
5 *170:19 *170:21 488.835 
6 *170:21 gpio_analog_pol[43] 1.0875 
*END

*D_NET *171 0.275299
*CONN
*P gpio_analog_pol[4] O
*I *874:gpio_analog_pol[4] O *D counter_gpio_config_example
*CAP
1 gpio_analog_pol[4] 0.0075455
2 *874:gpio_analog_pol[4] 0.0001607
3 *171:9 0.103099
4 *171:7 0.0957145
5 gpio_analog_pol[4] gpio_dm0[4] 0.00163751
6 gpio_analog_pol[4] gpio_dm1[4] 0
7 gpio_analog_pol[4] gpio_ib_mode_sel[4] 0.00874929
8 gpio_analog_pol[4] *348:13 0.000140197
9 gpio_analog_pol[4] *567:31 0
10 *171:7 *172:7 4.14661e-05
11 *171:7 *172:9 5.68526e-06
12 *171:7 *435:7 4.14661e-05
13 *171:9 *172:9 0.0170053
14 *171:9 *368:55 7.84487e-05
15 *171:9 *435:7 5.68526e-06
16 *171:9 *435:9 0.0410675
17 gpio_analog_en[4] gpio_analog_pol[4] 5.9286e-06
*RES
1 *874:gpio_analog_pol[4] *171:7 0.449667 
2 *171:7 *171:9 293.236 
3 *171:9 gpio_analog_pol[4] 24.9685 
*END

*D_NET *172 0.290812
*CONN
*P gpio_analog_pol[5] O
*I *874:gpio_analog_pol[5] O *D counter_gpio_config_example
*CAP
1 gpio_analog_pol[5] 0.00011658
2 *874:gpio_analog_pol[5] 0.0001607
3 *172:17 0.0736072
4 *172:15 0.0919143
5 *172:9 0.0596442
6 *172:7 0.0413813
7 *172:7 *363:11 4.71514e-05
8 *172:9 *363:11 0.00556651
9 *172:9 *368:55 0.000126031
10 *172:17 gpio_dm0[5] 0.000396456
11 *172:17 gpio_inp_dis[5] 0.000799371
12 gpio_analog_en[5] *172:17 0
13 *128:21 *172:17 0
14 *171:7 *172:7 4.14661e-05
15 *171:7 *172:9 5.68526e-06
16 *171:9 *172:9 0.0170053
*RES
1 *874:gpio_analog_pol[5] *172:7 0.449667 
2 *172:7 *172:9 122.748 
3 *172:9 *172:15 47.1193 
4 *172:15 *172:17 176.857 
5 *172:17 gpio_analog_pol[5] 0.335033 
*END

*D_NET *173 0.602427
*CONN
*P gpio_analog_pol[6] O
*I *874:gpio_analog_pol[6] O *D counter_gpio_config_example
*CAP
1 gpio_analog_pol[6] 4.05377e-05
2 *874:gpio_analog_pol[6] 0.00273842
3 *173:13 0.113488
4 *173:11 0.113447
5 *173:9 0.0153379
6 *173:7 0.0180763
7 *173:7 *416:23 0.000695868
8 *173:7 *529:7 0.000694263
9 *173:9 *260:9 0.0388104
10 *173:9 *349:9 0.0560167
11 *173:9 *691:13 0
12 *173:13 gpio_dm0[6] 0
13 *173:13 gpio_inp_dis[6] 0.00170063
14 *173:13 *569:25 0.241381
15 *129:13 *173:13 0
*RES
1 *874:gpio_analog_pol[6] *173:7 6.95747 
2 *173:7 *173:9 647.805 
3 *173:9 *173:11 0.5 
4 *173:11 *173:13 382.101 
5 *173:13 gpio_analog_pol[6] 0.107033 
*END

*D_NET *174 0.63471
*CONN
*P gpio_analog_pol[7] O
*I *874:gpio_analog_pol[7] O *D counter_gpio_config_example
*CAP
1 gpio_analog_pol[7] 0.000938369
2 *874:gpio_analog_pol[7] 0.00269703
3 *174:13 0.158697
4 *174:11 0.157759
5 *174:9 0.0435091
6 *174:7 0.0462061
7 gpio_analog_pol[7] gpio_dm0[7] 0.00164223
8 gpio_analog_pol[7] gpio_inp_dis[7] 0.000399076
9 *174:7 *302:7 4.90105e-05
10 *174:7 *440:7 0
11 *174:9 *197:9 0.0526998
12 *174:9 *204:9 0.00346752
13 *174:9 *249:9 0.0279993
14 *174:9 *283:17 0.0800928
15 *174:9 *377:17 5.49868e-05
16 *174:13 gpio_dm0[7] 0.00604272
17 gpio_analog_en[35] *174:9 0.00395054
18 gpio_analog_en[7] *174:13 0
19 *95:9 *174:9 0.0190615
20 *96:9 *174:9 0.0241755
21 *151:7 *174:7 0.000503996
22 *154:17 *174:9 0.00476393
*RES
1 *874:gpio_analog_pol[7] *174:7 5.99607 
2 *174:7 *174:9 228.636 
3 *174:9 *174:11 0.5 
4 *174:11 *174:13 378.567 
5 *174:13 gpio_analog_pol[7] 5.00983 
*END

*D_NET *175 0.465402
*CONN
*P gpio_analog_pol[8] O
*I *874:gpio_analog_pol[8] O *D counter_gpio_config_example
*CAP
1 gpio_analog_pol[8] 0.00848619
2 *874:gpio_analog_pol[8] 0.000146727
3 *175:13 0.106446
4 *175:11 0.0979599
5 *175:9 0.113849
6 *175:7 0.113995
7 gpio_analog_pol[8] gpio_dm0[8] 0
8 gpio_analog_pol[8] gpio_inp_dis[8] 0.000395146
9 gpio_analog_pol[8] *571:26 0.0155076
10 *175:7 *231:7 3.80212e-05
11 *175:7 *436:11 4.31932e-05
12 *175:9 *231:7 5.17202e-06
13 *175:9 *231:9 0.00632224
14 *175:9 *312:9 0
15 *175:9 *436:11 0.00220734
*RES
1 *874:gpio_analog_pol[8] *175:7 0.449667 
2 *175:7 *175:9 272.959 
3 *175:9 *175:11 0.5 
4 *175:11 *175:13 248.877 
5 *175:13 gpio_analog_pol[8] 27.3641 
*END

*D_NET *176 0.537443
*CONN
*P gpio_analog_pol[9] O
*I *874:gpio_analog_pol[9] O *D counter_gpio_config_example
*CAP
1 gpio_analog_pol[9] 0.00237962
2 *874:gpio_analog_pol[9] 0.00100849
3 *176:21 0.058974
4 *176:19 0.0565944
5 *176:17 0.0887039
6 *176:15 0.0887039
7 *176:13 0.0383053
8 *176:11 0.0393138
9 gpio_analog_pol[9] gpio_dm0[9] 0.000399076
10 gpio_analog_pol[9] gpio_inp_dis[9] 0.000547958
11 gpio_analog_pol[9] *572:9 5.71181e-06
12 *176:11 *265:7 0
13 *176:11 *265:9 0
14 *176:11 *378:21 0.000302532
15 *176:11 *410:19 0
16 *176:11 *546:13 0.000101735
17 *176:13 *205:17 7.79749e-05
18 *176:13 *286:19 0
19 *176:13 *326:19 8.76348e-06
20 *176:13 *372:23 8.69542e-05
21 *176:13 *410:19 0.00132248
22 *176:13 *567:31 0
23 *176:13 *740:18 0.0221109
24 *176:21 *572:9 0
25 *132:13 gpio_analog_pol[9] 0.000274571
26 *132:13 *176:21 0.138221
*RES
1 *874:gpio_analog_pol[9] *176:11 1.74167 
2 *176:11 *176:13 85.2239 
3 *176:13 *176:15 0.5 
4 *176:15 *176:17 225.191 
5 *176:17 *176:19 0.5 
6 *176:19 *176:21 208.516 
7 *176:21 gpio_analog_pol[9] 5.8805 
*END

*D_NET *177 0.32359
*CONN
*P gpio_analog_sel[0] O
*I *874:gpio_analog_sel[0] O *D counter_gpio_config_example
*CAP
1 gpio_analog_sel[0] 0.0025406
2 *874:gpio_analog_sel[0] 0.00519078
3 *177:17 0.123259
4 *177:15 0.120718
5 *177:13 0.0245114
6 *177:11 0.0297022
7 gpio_analog_sel[0] gpio_dm2[0] 0.00178524
8 gpio_analog_sel[0] gpio_holdover[0] 0
9 *177:11 *214:11 7.32825e-05
10 *177:11 *376:11 0.000846895
11 *177:11 *419:17 0.00222976
12 *177:11 *683:17 0
13 *177:11 *815:21 0.00110382
14 *177:13 *258:13 0.00853154
15 *177:13 *430:17 0.00309718
16 *177:17 gpio_holdover[0] 0
17 *177:17 *705:45 0
18 *130:13 *177:13 0
*RES
1 *874:gpio_analog_sel[0] *177:11 16.0205 
2 *177:11 *177:13 59.0393 
3 *177:13 *177:15 0.5 
4 *177:15 *177:17 279.368 
5 *177:17 gpio_analog_sel[0] 5.8083 
*END

*D_NET *178 0.776695
*CONN
*P gpio_analog_sel[10] O
*I *874:gpio_analog_sel[10] O *D counter_gpio_config_example
*CAP
1 gpio_analog_sel[10] 0.000272607
2 *874:gpio_analog_sel[10] 0.00651359
3 *178:21 0.161437
4 *178:19 0.161164
5 *178:17 0.0308121
6 *178:15 0.0373256
7 *178:15 *184:7 0.00090986
8 *178:15 *193:9 0.00161856
9 *178:15 *206:11 4.25036e-05
10 *178:15 *268:15 3.75923e-05
11 *178:15 *284:9 0.00764984
12 *178:15 *327:7 0
13 *178:15 *374:9 0.00764011
14 *178:15 *536:7 0
15 *178:17 *193:9 0.000118514
16 *178:17 *241:19 0.00936064
17 *178:17 *268:17 0.16997
18 *178:17 *304:9 0.00259294
19 *178:17 *374:9 0.0216591
20 *178:17 *440:9 0.151928
21 *178:21 *354:21 0
22 *178:21 *530:17 0
23 *178:21 *768:9 0
24 *107:9 *178:17 0.00257761
25 *162:9 *178:17 0.00306411
*RES
1 *874:gpio_analog_sel[10] *178:15 25.6199 
2 *178:15 *178:17 1919.74 
3 *178:17 *178:19 0.5 
4 *178:19 *178:21 384.607 
5 *178:21 gpio_analog_sel[10] 0.783433 
*END

*D_NET *179 0.88836
*CONN
*P gpio_analog_sel[11] O
*I *874:gpio_analog_sel[11] O *D counter_gpio_config_example
*CAP
1 gpio_analog_sel[11] 0.000151102
2 *874:gpio_analog_sel[11] 0.0073405
3 *179:21 0.113845
4 *179:19 0.113693
5 *179:17 0.051582
6 *179:15 0.0589225
7 *179:15 *323:7 0.000191954
8 *179:15 *344:17 9.58053e-05
9 *179:15 *418:9 0.00760645
10 *179:15 *538:7 0
11 *179:15 *548:7 0
12 *179:17 *184:9 0.179182
13 *179:17 *241:9 0.111791
14 *179:21 gpio_dm2[11] 0
15 *179:21 *311:13 0.241057
16 *143:7 *179:15 5.54612e-05
17 *162:9 *179:15 0.00284644
*RES
1 *874:gpio_analog_sel[11] *179:15 25.2424 
2 *179:15 *179:17 2070.71 
3 *179:17 *179:19 0.5 
4 *179:19 *179:21 383.733 
5 *179:21 gpio_analog_sel[11] 0.428767 
*END

*D_NET *180 0.759067
*CONN
*P gpio_analog_sel[12] O
*I *874:gpio_analog_sel[12] O *D counter_gpio_config_example
*CAP
1 gpio_analog_sel[12] 2.80646e-05
2 *874:gpio_analog_sel[12] 0.00188728
3 *180:13 0.13685
4 *180:11 0.136822
5 *180:9 0.0707618
6 *180:7 0.0726491
7 *180:9 *194:9 0
8 *180:9 *244:9 0.0136464
9 *180:9 *426:9 0.000268434
10 *180:9 *733:13 0.00240519
11 *180:13 gpio_dm2[12] 0.00170752
12 *180:13 gpio_oeb[25] 0
13 *180:13 *312:17 0.125511
14 *93:17 *180:9 0.18671
15 *105:9 *180:9 0.00192714
16 *122:17 *180:9 0.00269186
17 *127:9 *180:9 0.00476545
18 *142:7 *180:7 6.16996e-05
19 *152:7 *180:7 0.000373833
*RES
1 *874:gpio_analog_sel[12] *180:7 4.2772 
2 *180:7 *180:9 2107.94 
3 *180:9 *180:11 0.5 
4 *180:11 *180:13 379.421 
5 *180:13 gpio_analog_sel[12] 0.0741 
*END

*D_NET *181 0.590816
*CONN
*P gpio_analog_sel[13] O
*I *874:gpio_analog_sel[13] O *D counter_gpio_config_example
*CAP
1 gpio_analog_sel[13] 0.000252581
2 *874:gpio_analog_sel[13] 0.000136793
3 *181:17 0.0363359
4 *181:15 0.0360833
5 *181:13 0.165751
6 *181:11 0.165751
7 *181:9 0.0840297
8 *181:7 0.0841665
9 *181:7 *277:11 4.31932e-05
10 *181:7 *530:7 4.7387e-05
11 *181:9 *277:11 0.00272544
12 *181:9 *386:9 0
13 *181:9 *530:7 6.84348e-06
14 *181:9 *530:9 0.0154854
*RES
1 *874:gpio_analog_sel[13] *181:7 0.449667 
2 *181:7 *181:9 217.023 
3 *181:9 *181:11 0.5 
4 *181:11 *181:13 418.818 
5 *181:13 *181:15 0.5 
6 *181:15 *181:17 82.5816 
7 *181:17 gpio_analog_sel[13] 0.6669 
*END

*D_NET *182 0.727244
*CONN
*P gpio_analog_sel[14] O
*I *874:gpio_analog_sel[14] O *D counter_gpio_config_example
*CAP
1 gpio_analog_sel[14] 8.05809e-05
2 *874:gpio_analog_sel[14] 0.0106516
3 *182:17 0.0793172
4 *182:15 0.0792366
5 *182:13 0.183942
6 *182:11 0.194593
7 *182:11 *286:15 0.000603618
8 *182:13 *254:15 0.000242485
9 *182:17 gpio_dm2[14] 0.000395146
10 *182:17 *314:13 0.175253
11 *182:17 *358:17 0
12 *90:7 *182:11 3.45181e-05
13 *90:9 *182:11 0.00289417
14 *167:9 *182:11 0
*RES
1 *874:gpio_analog_sel[14] *182:11 27.4407 
2 *182:11 *182:13 466.278 
3 *182:13 *182:15 0.5 
4 *182:15 *182:17 273.114 
5 *182:17 gpio_analog_sel[14] 0.2261 
*END

*D_NET *183 0.958999
*CONN
*P gpio_analog_sel[15] O
*I *874:gpio_analog_sel[15] O *D counter_gpio_config_example
*CAP
1 gpio_analog_sel[15] 0.000862353
2 *874:gpio_analog_sel[15] 0.00427086
3 *183:21 0.0842101
4 *183:19 0.0844112
5 *183:9 0.11461
6 *183:7 0.117817
7 gpio_analog_sel[15] gpio_dm2[15] 0
8 *183:7 *196:7 0
9 *183:7 *244:7 0.000410488
10 *183:7 *283:7 0.000483676
11 *183:9 *191:9 0.281366
12 *183:9 *193:17 0.0602179
13 *183:9 *196:9 0.00230501
14 *183:9 *247:9 0.00346313
15 *183:9 *469:11 0
16 *183:9 *822:10 0
17 *183:19 *184:19 0.00057902
18 *183:19 *272:19 0.000625443
19 *183:21 gpio_dm2[19] 0.000511719
20 *183:21 *189:13 0.00422601
21 *183:21 *272:21 0.188389
22 *183:21 *366:13 0.00958237
23 gpio_analog_pol[20] *183:21 0.000350294
24 *96:7 *183:7 0
25 *101:15 *183:19 0.00030703
*RES
1 *874:gpio_analog_sel[15] *183:7 10.2787 
2 *183:7 *183:9 3236.05 
3 *183:9 *183:19 10.4825 
4 *183:19 *183:21 2102.88 
5 *183:21 gpio_analog_sel[15] 17.0975 
*END

*D_NET *184 0.801285
*CONN
*P gpio_analog_sel[16] O
*I *874:gpio_analog_sel[16] O *D counter_gpio_config_example
*CAP
1 gpio_analog_sel[16] 0.000848401
2 *874:gpio_analog_sel[16] 0.00316987
3 *184:21 0.0622895
4 *184:19 0.0623953
5 *184:9 0.137154
6 *184:7 0.13937
7 gpio_analog_sel[16] gpio_dm2[16] 0
8 *184:7 *327:7 0.000911486
9 *184:9 *241:9 0.0053037
10 *184:19 *272:19 0.00142999
11 *184:19 *274:9 0.000178095
12 *184:19 *279:15 0.000157872
13 *184:21 gpio_dm2[19] 0.000722496
14 *184:21 *189:13 0.0134779
15 *184:21 *272:21 0.185849
16 *184:21 *274:13 0.00719306
17 *184:21 *316:15 0
18 *184:21 *366:13 0.000112235
19 *95:9 *184:19 5.19291e-05
20 *96:13 *184:21 0
21 *178:15 *184:7 0.00090986
22 *179:17 *184:9 0.179182
23 *183:19 *184:19 0.00057902
*RES
1 *874:gpio_analog_sel[16] *184:7 8.53067 
2 *184:7 *184:9 3126.92 
3 *184:9 *184:19 9.52077 
4 *184:19 *184:21 1710.61 
5 *184:21 gpio_analog_sel[16] 17.225 
*END

*D_NET *185 0.440983
*CONN
*P gpio_analog_sel[17] O
*I *874:gpio_analog_sel[17] O *D counter_gpio_config_example
*CAP
1 gpio_analog_sel[17] 0.00476421
2 *874:gpio_analog_sel[17] 0.0135741
3 *185:19 0.00476421
4 *185:17 0.0597665
5 *185:15 0.0597665
6 *185:13 0.142228
7 *185:11 0.155802
8 gpio_analog_sel[17] gpio_dm2[17] 0
9 *185:11 *346:15 0
10 *185:11 *787:17 0
11 *185:17 *186:17 0
12 *114:19 *185:11 0.000317464
13 *145:11 *185:11 0
*RES
1 *874:gpio_analog_sel[17] *185:11 30.9659 
2 *185:11 *185:13 2581.73 
3 *185:13 *185:15 0.5 
4 *185:15 *185:17 144.947 
5 *185:17 *185:19 0.5 
6 *185:19 gpio_analog_sel[17] 84.7125 
*END

*D_NET *186 0.442423
*CONN
*P gpio_analog_sel[18] O
*I *874:gpio_analog_sel[18] O *D counter_gpio_config_example
*CAP
1 gpio_analog_sel[18] 0.00517452
2 *874:gpio_analog_sel[18] 0.0127686
3 *186:19 0.00517452
4 *186:17 0.036187
5 *186:15 0.036187
6 *186:13 0.163656
7 *186:11 0.176424
8 gpio_analog_sel[18] gpio_dm2[18] 0
9 *186:11 *555:11 0.00105271
10 *186:17 *187:19 0
11 *186:17 *403:17 0
12 *103:11 *186:11 0.000457779
13 *144:12 *186:11 0.00534136
14 *185:17 *186:17 0
*RES
1 *874:gpio_analog_sel[18] *186:11 31.8399 
2 *186:11 *186:13 2964.23 
3 *186:13 *186:15 0.5 
4 *186:15 *186:17 87.7293 
5 *186:17 *186:19 0.5 
6 *186:19 gpio_analog_sel[18] 89.8125 
*END

*D_NET *187 0.514488
*CONN
*P gpio_analog_sel[19] O
*I *874:gpio_analog_sel[19] O *D counter_gpio_config_example
*CAP
1 gpio_analog_sel[19] 0.00547112
2 *874:gpio_analog_sel[19] 0.00651901
3 *187:19 0.0208659
4 *187:13 0.108932
5 *187:11 0.100056
6 gpio_analog_sel[19] gpio_dm2[19] 0
7 *187:11 *218:7 4.14661e-05
8 *187:11 *218:9 0.00203429
9 *187:11 *292:11 0.000249767
10 *187:11 *540:11 0
11 *187:11 *738:25 0
12 *187:13 *390:13 0.00380355
13 *187:13 *409:13 0.240643
14 *187:19 *805:25 0.00195859
15 *130:13 *187:13 0.0239132
16 *186:17 *187:19 0
*RES
1 *874:gpio_analog_sel[19] *187:11 17.0401 
2 *187:11 *187:13 2717.39 
3 *187:13 *187:19 39.0279 
4 *187:19 gpio_analog_sel[19] 94.4025 
*END

*D_NET *188 0.321223
*CONN
*P gpio_analog_sel[1] O
*I *874:gpio_analog_sel[1] O *D counter_gpio_config_example
*CAP
1 gpio_analog_sel[1] 0.0030386
2 *874:gpio_analog_sel[1] 0.000161259
3 *188:13 0.018132
4 *188:11 0.0150934
5 *188:9 0.103283
6 *188:7 0.103444
7 gpio_analog_sel[1] gpio_dm2[1] 0.000398607
8 gpio_analog_sel[1] *364:17 0.00104759
9 *188:7 *230:7 4.58267e-05
10 *188:7 *415:11 4.14661e-05
11 *188:9 *230:9 0
12 *188:9 *415:11 0.000470609
13 *188:9 *694:17 0.0408479
14 *188:13 gpio_inp_dis[2] 0
15 *188:13 *348:13 0.00433128
16 *188:13 *483:11 0.00151223
17 gpio_analog_pol[1] *188:13 0.00474285
18 *89:13 *188:13 0.0246329
19 *100:9 *188:9 0
*RES
1 *874:gpio_analog_sel[1] *188:7 0.449667 
2 *188:7 *188:9 293.236 
3 *188:9 *188:11 0.5 
4 *188:11 *188:13 60.9343 
5 *188:13 gpio_analog_sel[1] 7.56737 
*END

*D_NET *189 0.83779
*CONN
*P gpio_analog_sel[20] O
*I *874:gpio_analog_sel[20] O *D counter_gpio_config_example
*CAP
1 gpio_analog_sel[20] 0.000890464
2 *874:gpio_analog_sel[20] 0.00219676
3 *189:13 0.0213623
4 *189:11 0.0204719
5 *189:9 0.0433341
6 *189:7 0.0455308
7 gpio_analog_sel[20] gpio_dm2[20] 0
8 gpio_analog_sel[20] *321:13 0
9 *189:7 *217:7 0.000468478
10 *189:7 *233:7 0.000165299
11 *189:9 *402:9 0.247954
12 *189:9 *779:18 0.00589574
13 *189:13 gpio_ib_mode_sel[20] 0
14 *189:13 *272:21 0.0147044
15 *189:13 *366:13 0.0444537
16 gpio_analog_pol[20] *189:13 0.000681165
17 *99:9 *189:9 0.25651
18 *101:17 *189:13 0.0660795
19 *105:17 *189:9 0.0493873
20 *152:7 *189:7 0
21 *183:21 *189:13 0.00422601
22 *184:21 *189:13 0.0134779
*RES
1 *874:gpio_analog_sel[20] *189:7 5.09293 
2 *189:7 *189:9 2895.89 
3 *189:9 *189:11 0.5 
4 *189:11 *189:13 102.063 
5 *189:13 gpio_analog_sel[20] 16.235 
*END

*D_NET *190 0.445139
*CONN
*P gpio_analog_sel[21] O
*I *874:gpio_analog_sel[21] O *D counter_gpio_config_example
*CAP
1 gpio_analog_sel[21] 8.17048e-05
2 *874:gpio_analog_sel[21] 0.000274738
3 *190:33 0.148362
4 *190:31 0.148281
5 *190:29 0.00652752
6 *190:27 0.0135286
7 *190:19 0.00814779
8 *190:9 0.00486099
9 *190:7 0.00398899
10 gpio_analog_sel[21] gpio_dm2[21] 0
11 *190:7 *329:7 5.00763e-05
12 *190:7 *412:7 5.00763e-05
13 *190:9 *391:9 0.0047428
14 *190:9 *532:19 0.000902531
15 *190:19 *664:18 0
16 *190:27 *215:33 0.00024899
17 *190:27 *381:17 0.00933412
18 *190:27 *542:19 0.0168317
19 *190:27 *675:5 0
20 *190:27 *742:9 0.00620958
21 *190:27 *783:13 0.000276109
22 *190:29 *542:21 0.0190504
23 *190:29 *743:17 0.00510702
24 *190:33 *322:17 0
25 *190:33 *468:19 0.000132553
26 *104:27 *190:27 0.00184965
27 *132:9 *190:19 0.000252275
28 *135:11 *190:19 0.00204819
29 *142:9 *190:9 0.0212133
30 *143:9 *190:9 0.022786
*RES
1 *874:gpio_analog_sel[21] *190:7 1.07253 
2 *190:7 *190:9 257.272 
3 *190:9 *190:19 30.9675 
4 *190:19 *190:27 42.313 
5 *190:27 *190:29 173.985 
6 *190:29 *190:31 2 
7 *190:31 *190:33 2632.85 
8 *190:33 gpio_analog_sel[21] 1.35 
*END

*D_NET *191 0.767242
*CONN
*P gpio_analog_sel[22] O
*I *874:gpio_analog_sel[22] O *D counter_gpio_config_example
*CAP
1 gpio_analog_sel[22] 0.00649203
2 *874:gpio_analog_sel[22] 0.00436255
3 *191:9 0.0583382
4 *191:7 0.0562087
5 gpio_analog_sel[22] gpio_dm1[23] 0.00884671
6 gpio_analog_sel[22] gpio_dm2[22] 0
7 *191:7 *248:7 0.0010023
8 *191:7 *391:7 5.4423e-05
9 *191:9 *193:17 0.0190787
10 *191:9 *196:9 0.0250261
11 *191:9 *247:9 0.0147448
12 *191:9 *314:9 0.258266
13 *191:9 *469:11 0
14 *99:13 gpio_analog_sel[22] 0.007022
15 *102:13 gpio_analog_sel[22] 0.0264342
16 *183:9 *191:9 0.281366
*RES
1 *874:gpio_analog_sel[22] *191:7 10.3369 
2 *191:7 *191:9 3195.25 
3 *191:9 gpio_analog_sel[22] 44.8056 
*END

*D_NET *192 0.574202
*CONN
*P gpio_analog_sel[23] O
*I *874:gpio_analog_sel[23] O *D counter_gpio_config_example
*CAP
1 gpio_analog_sel[23] 0.00208449
2 *874:gpio_analog_sel[23] 9.324e-05
3 *192:17 0.0397256
4 *192:15 0.0376411
5 *192:13 0.0319406
6 *192:11 0.0319406
7 *192:9 0.0528561
8 *192:7 0.0529493
9 gpio_analog_sel[23] gpio_dm2[23] 0
10 *192:9 *236:9 0.1902
11 *192:9 *237:9 0.0343506
12 *192:9 *245:9 0.100346
13 *192:13 *710:17 0
14 *192:17 *324:17 0
15 *89:7 *192:7 3.62572e-05
16 *136:7 *192:7 3.78657e-05
*RES
1 *874:gpio_analog_sel[23] *192:7 0.7812 
2 *192:7 *192:9 2154.6 
3 *192:9 *192:11 0.5 
4 *192:11 *192:13 76.2508 
5 *192:13 *192:15 0.5 
6 *192:15 *192:17 686.1 
7 *192:17 gpio_analog_sel[23] 36.0975 
*END

*D_NET *193 0.599536
*CONN
*P gpio_analog_sel[24] O
*I *874:gpio_analog_sel[24] O *D counter_gpio_config_example
*CAP
1 gpio_analog_sel[24] 0.00739407
2 *874:gpio_analog_sel[24] 0.0037328
3 *193:17 0.13614
4 *193:15 0.12903
5 *193:9 0.0200426
6 *193:7 0.0234916
7 gpio_analog_sel[24] gpio_dm2[24] 0
8 gpio_analog_sel[24] *314:13 0
9 *193:7 *354:15 0.00114889
10 *193:9 *268:17 0
11 *193:9 *284:9 0.00346388
12 *193:9 *304:9 0.0174575
13 *193:9 *374:9 0.00136297
14 *193:9 *822:10 0.000848297
15 *193:17 *196:9 0.0438172
16 *193:17 *247:9 0.0246874
17 *193:17 *284:9 0.0612599
18 *193:17 *314:9 0.0355093
19 *193:17 *328:9 2.87322e-06
20 gpio_analog_pol[36] *193:15 0
21 *99:7 *193:7 0
22 *107:9 *193:9 0.00693987
23 *107:9 *193:17 0.00171692
24 *141:7 *193:7 3.81884e-05
25 *150:9 *193:17 0
26 *162:9 *193:9 0.000417767
27 *178:15 *193:9 0.00161856
28 *178:17 *193:9 0.000118514
29 *183:9 *193:17 0.0602179
30 *191:9 *193:17 0.0190787
*RES
1 *874:gpio_analog_sel[24] *193:7 9.63773 
2 *193:7 *193:9 435.135 
3 *193:9 *193:15 1.59153 
4 *193:15 *193:17 459.904 
5 *193:17 gpio_analog_sel[24] 16.3986 
*END

*D_NET *194 0.402297
*CONN
*P gpio_analog_sel[25] O
*I *874:gpio_analog_sel[25] O *D counter_gpio_config_example
*CAP
1 gpio_analog_sel[25] 0.00827505
2 *874:gpio_analog_sel[25] 0.0021138
3 *194:9 0.079262
4 *194:7 0.0731007
5 gpio_analog_sel[25] gpio_dm2[25] 0.000475635
6 gpio_analog_sel[25] *326:25 0.00323937
7 *194:7 gpio_ib_mode_sel[36] 0
8 *194:7 *215:7 0.00034488
9 *194:9 *244:9 0.0292185
10 *194:9 *369:9 0.187621
11 *194:9 *733:13 0.0056923
12 *194:9 *778:13 0.00406337
13 *93:17 *194:9 0
14 *105:17 *194:9 0.00808328
15 *122:17 *194:9 0.000806912
16 *180:9 *194:9 0
*RES
1 *874:gpio_analog_sel[25] *194:7 4.51027 
2 *194:7 *194:9 2118.14 
3 *194:9 gpio_analog_sel[25] 22.6268 
*END

*D_NET *195 0.482283
*CONN
*P gpio_analog_sel[26] O
*I *874:gpio_analog_sel[26] O *D counter_gpio_config_example
*CAP
1 gpio_analog_sel[26] 0.00119478
2 *874:gpio_analog_sel[26] 0.000155702
3 *195:13 0.043175
4 *195:11 0.0419803
5 *195:9 0.0590057
6 *195:7 0.0591614
7 gpio_analog_sel[26] gpio_dm2[26] 0.000485383
8 *195:7 *211:11 3.45668e-05
9 *195:7 *326:11 3.68451e-05
10 *195:9 *200:13 0.104022
11 *195:9 *234:13 0.000318962
12 *195:9 *237:9 0.162075
13 *195:9 *368:57 0
14 *195:13 gpio_dm2[26] 0.0045619
15 *195:13 gpio_holdover[26] 0.00010643
16 *195:13 *723:9 0
17 *158:11 *195:9 0.00596967
*RES
1 *874:gpio_analog_sel[26] *195:7 0.830504 
2 *195:7 *195:9 305.768 
3 *195:9 *195:11 0.5 
4 *195:11 *195:13 99.4118 
5 *195:13 gpio_analog_sel[26] 5.6815 
*END

*D_NET *196 0.538079
*CONN
*P gpio_analog_sel[27] O
*I *874:gpio_analog_sel[27] O *D counter_gpio_config_example
*CAP
1 gpio_analog_sel[27] 0.00527243
2 *874:gpio_analog_sel[27] 0.00390274
3 *196:9 0.0709693
4 *196:7 0.0695996
5 gpio_analog_sel[27] gpio_dm2[27] 0.00979573
6 gpio_analog_sel[27] gpio_holdover[27] 0
7 gpio_analog_sel[27] *372:29 0
8 *196:7 *283:7 0.000483676
9 *196:7 *306:7 0.00126297
10 *196:9 *247:9 0.0623285
11 *196:9 *268:15 0
12 *196:9 *284:9 0
13 *196:9 *314:9 0.0490134
14 *196:9 *328:9 0.194302
15 *183:7 *196:7 0
16 *183:9 *196:9 0.00230501
17 *191:9 *196:9 0.0250261
18 *193:17 *196:9 0.0438172
*RES
1 *874:gpio_analog_sel[27] *196:7 10.5409 
2 *196:7 *196:9 365.588 
3 *196:9 gpio_analog_sel[27] 18.3994 
*END

*D_NET *197 0.361771
*CONN
*P gpio_analog_sel[28] O
*I *874:gpio_analog_sel[28] O *D counter_gpio_config_example
*CAP
1 gpio_analog_sel[28] 0.00932146
2 *874:gpio_analog_sel[28] 0.00280354
3 *197:9 0.0546206
4 *197:7 0.0481026
5 gpio_analog_sel[28] gpio_dm2[28] 0
6 gpio_analog_sel[28] gpio_holdover[28] 0
7 *197:7 *224:7 0.000112986
8 *197:7 *565:7 0.00052201
9 *197:9 *249:9 0.0207364
10 *197:9 *274:9 0.000134611
11 *197:9 *283:17 0.0137432
12 *197:9 *325:9 0.150066
13 *197:9 *470:11 0.00187854
14 *95:9 *197:9 0.00702896
15 *123:7 *197:7 0
16 *174:9 *197:9 0.0526998
*RES
1 *874:gpio_analog_sel[28] *197:7 6.22913 
2 *197:7 *197:9 282.125 
3 *197:9 gpio_analog_sel[28] 20.4063 
*END

*D_NET *198 0.356989
*CONN
*P gpio_analog_sel[29] O
*I *874:gpio_analog_sel[29] O *D counter_gpio_config_example
*CAP
1 gpio_analog_sel[29] 0.00430383
2 *874:gpio_analog_sel[29] 0.00611579
3 *198:9 0.0804304
4 *198:7 0.0822424
5 gpio_analog_sel[29] gpio_dm2[29] 0.000664389
6 gpio_analog_sel[29] *330:33 0.000525368
7 *198:7 *259:15 1.45731e-05
8 *198:7 *285:7 0.00179923
9 *198:7 *550:7 0.00187864
10 *198:7 *554:7 0
11 *198:9 *285:9 0
12 *198:9 *327:9 0.150029
13 *198:9 *538:9 0.0289858
*RES
1 *874:gpio_analog_sel[29] *198:7 16.6006 
2 *198:7 *198:9 282.125 
3 *198:9 gpio_analog_sel[29] 10.2375 
*END

*D_NET *199 0.501403
*CONN
*P gpio_analog_sel[2] O
*I *874:gpio_analog_sel[2] O *D counter_gpio_config_example
*CAP
1 gpio_analog_sel[2] 0.0163537
2 *874:gpio_analog_sel[2] 0.148922
3 *199:13 0.165276
4 gpio_analog_sel[2] *353:15 0.00928963
5 gpio_analog_sel[2] *727:29 0
6 *199:13 *210:12 0.160073
7 *92:13 gpio_analog_sel[2] 0.00148933
*RES
1 *874:gpio_analog_sel[2] *199:13 38.9026 
2 *199:13 gpio_analog_sel[2] 49.1406 
*END

*D_NET *200 0.410649
*CONN
*P gpio_analog_sel[30] O
*I *874:gpio_analog_sel[30] O *D counter_gpio_config_example
*CAP
1 gpio_analog_sel[30] 0.000980634
2 *874:gpio_analog_sel[30] 0.0012751
3 *200:17 0.0435749
4 *200:15 0.0425943
5 *200:13 0.0679263
6 *200:11 0.0692014
7 gpio_analog_sel[30] gpio_dm2[30] 0.00141871
8 gpio_analog_sel[30] *462:15 9.45007e-05
9 *200:11 *270:11 4.10918e-05
10 *200:11 *335:11 4.86449e-05
11 *200:13 *237:9 0.0119893
12 *200:13 *368:57 0.0104093
13 *200:13 *425:13 0.000744246
14 *200:17 gpio_dm2[30] 0.00366935
15 *200:17 gpio_out[30] 0
16 *120:8 *200:13 2.99336e-05
17 *120:10 *200:11 0.00119813
18 *120:10 *200:13 0.00213878
19 *160:15 *200:11 0.000759749
20 *160:17 *200:11 0.000798502
21 *160:17 *200:13 0.0477345
22 *195:9 *200:13 0.104022
*RES
1 *874:gpio_analog_sel[30] *200:11 5.05074 
2 *200:11 *200:13 252.7 
3 *200:13 *200:15 0.5 
4 *200:15 *200:17 99.4701 
5 *200:17 gpio_analog_sel[30] 4.6691 
*END

*D_NET *201 0.352859
*CONN
*P gpio_analog_sel[31] O
*I *874:gpio_analog_sel[31] O *D counter_gpio_config_example
*CAP
1 gpio_analog_sel[31] 0.00725144
2 *874:gpio_analog_sel[31] 0.0055802
3 *201:9 0.0547126
4 *201:7 0.0530413
5 gpio_analog_sel[31] gpio_dm2[31] 0
6 *201:7 *264:7 0
7 *201:7 *288:7 0
8 *201:7 *665:20 4.12446e-06
9 *201:9 *220:17 0.00874378
10 *201:9 *272:9 0.0168279
11 *201:9 *288:9 0.122029
12 *201:9 *379:13 0.0539019
13 *201:9 *383:11 0.00583515
14 *201:9 *396:15 0.00114327
15 *201:9 *396:17 0.0237883
16 *135:9 *201:7 0
17 *150:9 *201:9 0
*RES
1 *874:gpio_analog_sel[31] *201:7 11.4731 
2 *201:7 *201:9 229.669 
3 *201:9 gpio_analog_sel[31] 15.2535 
*END

*D_NET *202 0.247019
*CONN
*P gpio_analog_sel[32] O
*I *874:gpio_analog_sel[32] O *D counter_gpio_config_example
*CAP
1 gpio_analog_sel[32] 0.00462102
2 *874:gpio_analog_sel[32] 0.0052105
3 *202:9 0.0398234
4 *202:7 0.0404129
5 gpio_analog_sel[32] *334:17 0.00111817
6 *202:7 *424:7 0.00204779
7 *202:9 *285:9 0.0780436
8 *202:9 *327:9 0
9 *202:9 *413:17 0.00163507
10 *202:9 *414:9 0.00156381
11 gpio_analog_en[37] *202:9 0.00787022
12 *150:7 *202:7 0.00133156
13 *159:9 *202:9 0.0633413
14 *163:11 *202:9 0
*RES
1 *874:gpio_analog_sel[32] *202:7 15.9014 
2 *202:7 *202:9 185.828 
3 *202:9 gpio_analog_sel[32] 10.8911 
*END

*D_NET *203 0.182247
*CONN
*P gpio_analog_sel[33] O
*I *874:gpio_analog_sel[33] O *D counter_gpio_config_example
*CAP
1 gpio_analog_sel[33] 0.00242449
2 *874:gpio_analog_sel[33] 0.00170265
3 *203:17 0.048961
4 *203:15 0.0465365
5 *203:13 0.02652
6 *203:11 0.0282227
7 gpio_analog_sel[33] gpio_dm2[33] 0.00017628
8 gpio_analog_sel[33] gpio_holdover[33] 0
9 gpio_analog_sel[33] gpio_out[33] 0
10 *203:11 gpio_dm1[36] 0.000280769
11 *203:11 *315:7 5.03474e-05
12 *203:11 *315:9 0.000437213
13 *203:11 *319:11 0.00046946
14 *203:13 *246:31 0.00920986
15 *203:13 *246:35 0.00324953
16 *203:13 *246:37 0.0137434
17 *203:17 gpio_holdover[33] 0
18 *203:17 gpio_out[33] 0
19 *203:17 *330:19 0
20 *152:15 *203:17 0.000262709
*RES
1 *874:gpio_analog_sel[33] *203:11 4.9498 
2 *203:11 *203:13 78.2471 
3 *203:13 *203:15 0.5 
4 *203:15 *203:17 101.189 
5 *203:17 gpio_analog_sel[33] 4.8355 
*END

*D_NET *204 0.162723
*CONN
*P gpio_analog_sel[34] O
*I *874:gpio_analog_sel[34] O *D counter_gpio_config_example
*CAP
1 gpio_analog_sel[34] 0.0102569
2 *874:gpio_analog_sel[34] 0.00187909
3 *204:9 0.0415736
4 *204:7 0.0331958
5 gpio_analog_sel[34] gpio_dm2[34] 0
6 gpio_analog_sel[34] *283:15 0.000242264
7 gpio_analog_sel[34] *380:17 0
8 gpio_analog_sel[34] *556:17 0
9 *204:7 *306:7 0.000593317
10 *204:7 *307:7 0.000598269
11 *204:9 *249:9 0
12 *204:9 *309:9 0.00630088
13 *204:9 *325:9 0
14 *204:9 *377:9 0.00218942
15 *204:9 *377:17 0.00931308
16 *204:9 *471:11 0.00438308
17 gpio_analog_en[35] *204:9 0.00121608
18 *115:9 *204:9 0.0475137
19 *174:9 *204:9 0.00346752
*RES
1 *874:gpio_analog_sel[34] *204:7 5.52993 
2 *204:7 *204:9 121.831 
3 *204:9 gpio_analog_sel[34] 21.3132 
*END

*D_NET *205 0.20463
*CONN
*P gpio_analog_sel[35] O
*I *874:gpio_analog_sel[35] O *D counter_gpio_config_example
*CAP
1 gpio_analog_sel[35] 0.00979474
2 *874:gpio_analog_sel[35] 0.00214027
3 *205:21 0.0108043
4 *205:19 0.00100957
5 *205:17 0.0252287
6 *205:15 0.0252287
7 *205:13 0.00492851
8 *205:11 0.00706878
9 gpio_analog_sel[35] gpio_dm2[35] 0.000190192
10 gpio_analog_sel[35] gpio_out[35] 0
11 *205:11 *293:11 0.000145791
12 *205:13 *282:13 0.0157336
13 *205:13 *415:13 0.000454312
14 *205:13 *479:11 0
15 *205:17 *286:19 0.000257576
16 *205:17 *372:23 0.00246501
17 *205:17 *377:15 0.000221742
18 *205:17 *410:19 0.00199854
19 *205:17 *553:16 0.000332861
20 *205:17 *661:17 0.00198595
21 *205:17 *672:11 0.0180634
22 *205:17 *691:9 0.034057
23 *205:17 *694:9 0.00111427
24 *205:17 *695:8 0.000162581
25 *205:17 *696:8 0.00019955
26 *205:17 *705:39 0.00580302
27 *205:17 *716:17 0.00120563
28 *205:17 *716:19 0.000943722
29 *205:17 *787:11 3.47161e-05
30 *205:17 *793:11 0.00780822
31 *205:17 *822:8 0.00397728
32 *205:17 *823:6 0.00145022
33 *205:17 *825:8 5.53713e-05
34 *205:17 *826:12 0.00173489
35 *205:21 *349:9 0.00499401
36 *94:11 *205:11 0
37 *102:9 *205:21 0.00499289
38 *122:195 *205:11 0.000564279
39 *124:11 *205:11 7.99705e-05
40 *146:23 *205:17 0.000556345
41 *148:13 *205:13 0.0067657
42 *176:13 *205:17 7.79749e-05
*RES
1 *874:gpio_analog_sel[35] *205:11 5.29044 
2 *205:11 *205:13 179.115 
3 *205:13 *205:15 0.5 
4 *205:15 *205:17 86.7971 
5 *205:17 *205:19 0.5 
6 *205:19 *205:21 57.735 
7 *205:21 gpio_analog_sel[35] 19.7451 
*END

*D_NET *206 0.0681563
*CONN
*P gpio_analog_sel[36] O
*I *874:gpio_analog_sel[36] O *D counter_gpio_config_example
*CAP
1 gpio_analog_sel[36] 0.0057302
2 *874:gpio_analog_sel[36] 0.0146537
3 *206:11 0.0203839
4 gpio_analog_sel[36] gpio_dm2[36] 0.000444805
5 gpio_analog_sel[36] gpio_out[36] 0
6 *206:11 *242:9 0.000873723
7 *206:11 *247:7 0
8 *206:11 *280:9 0.00520692
9 *206:11 *304:7 0
10 *206:11 *307:9 0.00115187
11 *206:11 *366:9 0.00178564
12 *206:11 *542:7 0.000247274
13 *133:7 *206:11 0.000371086
14 *157:15 gpio_analog_sel[36] 0.000336342
15 *161:9 *206:11 0.0169282
16 *178:15 *206:11 4.25036e-05
*RES
1 *874:gpio_analog_sel[36] *206:11 47.1434 
2 *206:11 gpio_analog_sel[36] 11.754 
*END

*D_NET *207 0.0329095
*CONN
*P gpio_analog_sel[37] O
*I *874:gpio_analog_sel[37] O *D counter_gpio_config_example
*CAP
1 gpio_analog_sel[37] 0.000748525
2 *874:gpio_analog_sel[37] 0.0115376
3 *207:9 0.00411598
4 *207:7 0.014905
5 gpio_analog_sel[37] gpio_vtrip_sel[37] 0.00021625
6 *207:7 *349:7 0.000691897
7 *207:7 *366:7 0
8 *207:7 *529:7 0.000694263
9 *207:9 *427:21 0
10 *207:9 *558:20 0
*RES
1 *874:gpio_analog_sel[37] *207:7 24.6705 
2 *207:7 *207:9 58.245 
3 *207:9 gpio_analog_sel[37] 2.19923 
*END

*D_NET *208 0.103943
*CONN
*P gpio_analog_sel[38] O
*I *874:gpio_analog_sel[38] O *D counter_gpio_config_example
*CAP
1 gpio_analog_sel[38] 2.24256e-05
2 *874:gpio_analog_sel[38] 0.0122727
3 *208:40 0.00851065
4 *208:38 0.0212397
5 *208:30 0.0250241
6 *208:30 gpio_dm0[37] 0.000157069
7 *208:30 *237:9 0
8 *208:30 *252:40 0.004777
9 *208:30 *295:24 5.06133e-05
10 *208:38 *252:40 1.29149e-05
11 *208:38 *252:44 0.0234517
12 *208:38 *832:9 0.00101991
13 *208:38 *833:9 0.00188512
14 *208:40 gpio_dm2[38] 0.000102301
15 *208:40 *384:19 0.00251697
16 *208:40 *384:21 0
17 *120:8 *208:30 0.000191358
18 *120:10 *208:30 0.00270828
19 *120:10 *208:38 0
*RES
1 *874:gpio_analog_sel[38] *208:30 34.8501 
2 *208:30 *208:38 48.4911 
3 *208:38 *208:40 160.905 
4 *208:40 gpio_analog_sel[38] 0.4125 
*END

*D_NET *209 0.120574
*CONN
*P gpio_analog_sel[39] O
*I *874:gpio_analog_sel[39] O *D counter_gpio_config_example
*CAP
1 gpio_analog_sel[39] 0.000160241
2 *874:gpio_analog_sel[39] 0.00012908
3 *209:13 0.031749
4 *209:11 0.0315887
5 *209:9 0.0232624
6 *209:7 0.0233915
7 *209:7 *353:7 4.7387e-05
8 *209:7 *543:11 6.059e-05
9 *209:9 *353:7 8.0017e-06
10 *209:9 *353:9 0.00889643
11 *209:9 *430:17 0.00126536
12 *209:9 *543:11 1.53757e-05
13 *92:9 *209:9 0
*RES
1 *874:gpio_analog_sel[39] *209:7 0.332838 
2 *209:7 *209:9 64.5683 
3 *209:9 *209:11 0.5 
4 *209:11 *209:13 543.915 
5 *209:13 gpio_analog_sel[39] 2.9475 
*END

*D_NET *210 0.546409
*CONN
*P gpio_analog_sel[3] O
*I *874:gpio_analog_sel[3] O *D counter_gpio_config_example
*CAP
1 gpio_analog_sel[3] 0.00712485
2 *874:gpio_analog_sel[3] 0.156313
3 *210:14 0.0284257
4 *210:12 0.177613
5 gpio_analog_sel[3] gpio_dm2[3] 0.000324407
6 gpio_analog_sel[3] *738:25 0
7 *210:12 *664:16 0.000588892
8 *210:14 *303:13 0.0159467
9 *210:14 *437:13 0
10 *199:13 *210:12 0.160073
*RES
1 *874:gpio_analog_sel[3] *210:12 40.4898 
2 *210:12 *210:14 67.6527 
3 *210:14 gpio_analog_sel[3] 16.1389 
*END

*D_NET *211 0.185726
*CONN
*P gpio_analog_sel[40] O
*I *874:gpio_analog_sel[40] O *D counter_gpio_config_example
*CAP
1 gpio_analog_sel[40] 5.99375e-05
2 *874:gpio_analog_sel[40] 0.00937704
3 *211:21 0.00299617
4 *211:19 0.00293623
5 *211:17 0.0330528
6 *211:15 0.0330528
7 *211:13 0.0427399
8 *211:11 0.052117
9 *211:11 *267:11 0
10 *211:11 *326:11 0
11 *211:13 *400:13 0.00418398
12 *211:17 *432:19 0
13 *211:17 *696:14 0
14 *211:21 gpio_dm2[40] 0
15 *211:21 *343:21 0.00490635
16 *112:11 *211:11 0.000269571
17 *195:7 *211:11 3.45668e-05
*RES
1 *874:gpio_analog_sel[40] *211:11 20.4779 
2 *211:11 *211:13 762.555 
3 *211:13 *211:15 0.5 
4 *211:15 *211:17 80.0964 
5 *211:17 *211:19 0.5 
6 *211:19 *211:21 69.615 
7 *211:21 gpio_analog_sel[40] 1.1025 
*END

*D_NET *212 0.304337
*CONN
*P gpio_analog_sel[41] O
*I *874:gpio_analog_sel[41] O *D counter_gpio_config_example
*CAP
1 gpio_analog_sel[41] 7.34411e-05
2 *874:gpio_analog_sel[41] 0.000568723
3 *212:13 0.0622303
4 *212:11 0.0621569
5 *212:9 0.0140798
6 *212:7 0.0146485
7 gpio_analog_sel[41] gpio_dm2[41] 0
8 *212:7 *225:7 0.000138824
9 *212:7 *418:7 0
10 *212:9 *228:9 0.00132812
11 *212:9 *384:9 0.00212081
12 *212:13 gpio_slow_sel[38] 0.0117283
13 *212:13 gpio_slow_sel[40] 0.000235184
14 *212:13 gpio_vtrip_sel[40] 0.000235184
15 *212:13 *296:13 0.0052283
16 *212:13 *300:19 0.0250571
17 *212:13 *340:17 0.000392005
18 *212:13 *344:35 0.000223887
19 *212:13 *473:5 0.00022438
20 *212:13 *739:9 0.0126647
21 gpio_analog_pol[40] *212:13 0.000368709
22 *119:7 *212:7 0
23 *123:15 *212:13 0.0285234
24 *125:21 *212:13 0.031858
25 *155:9 *212:9 0.00821111
26 *164:9 *212:9 0.00824229
27 *164:13 *212:13 0.000433972
28 *168:21 *212:13 0.0133654
*RES
1 *874:gpio_analog_sel[41] *212:7 1.83 
2 *212:7 *212:9 343.845 
3 *212:9 *212:11 0.5 
4 *212:11 *212:13 211.896 
5 *212:13 gpio_analog_sel[41] 1.775 
*END

*D_NET *213 0.294886
*CONN
*P gpio_analog_sel[42] O
*I *874:gpio_analog_sel[42] O *D counter_gpio_config_example
*CAP
1 gpio_analog_sel[42] 0.000196937
2 *874:gpio_analog_sel[42] 0.00406259
3 *213:21 0.00518483
4 *213:19 0.0049879
5 *213:17 0.0534396
6 *213:15 0.0534396
7 *213:13 0.0290039
8 *213:11 0.0330665
9 gpio_analog_sel[42] gpio_out[42] 0.000229232
10 *213:11 *363:11 0.0012032
11 *213:11 *390:11 0.00103134
12 *213:13 *310:13 0.00402083
13 *213:17 *390:17 0
14 *213:17 *475:11 0.0554564
15 *213:21 *741:13 0
16 *94:13 *213:13 0.000637925
17 *121:13 *213:13 0.0489254
*RES
1 *874:gpio_analog_sel[42] *213:11 10.8639 
2 *213:11 *213:13 718.695 
3 *213:13 *213:15 0.5 
4 *213:15 *213:17 158.698 
5 *213:17 *213:19 0.5 
6 *213:19 *213:21 90.525 
7 *213:21 gpio_analog_sel[42] 3.6225 
*END

*D_NET *214 0.283803
*CONN
*P gpio_analog_sel[43] O
*I *874:gpio_analog_sel[43] O *D counter_gpio_config_example
*CAP
1 gpio_analog_sel[43] 9.66339e-05
2 *874:gpio_analog_sel[43] 0.00182642
3 *214:21 0.0172637
4 *214:19 0.0171671
5 *214:17 0.0622015
6 *214:15 0.0622015
7 *214:13 0.00352295
8 *214:11 0.00534937
9 *214:11 *362:7 4.7387e-05
10 *214:11 *362:9 0.000831324
11 *214:11 *815:21 0.00406821
12 *214:13 *243:15 0.000259903
13 *214:13 *419:15 0.000337616
14 *214:13 *674:13 0
15 *214:13 *749:25 0.000259275
16 *214:17 *551:9 0.0527548
17 *214:21 gpio_dm2[43] 0
18 *214:21 *346:21 0.0415871
19 *214:21 *742:13 0
20 *165:9 *214:17 0
21 *169:13 *214:13 0.0102204
22 *170:13 *214:13 0.00373418
23 *177:11 *214:11 7.32825e-05
*RES
1 *874:gpio_analog_sel[43] *214:11 7.4844 
2 *214:11 *214:13 121.485 
3 *214:13 *214:15 0.5 
4 *214:15 *214:17 197.096 
5 *214:17 *214:19 0.5 
6 *214:19 *214:21 483.735 
7 *214:21 gpio_analog_sel[43] 1.7775 
*END

*D_NET *215 0.444463
*CONN
*P gpio_analog_sel[4] O
*I *874:gpio_analog_sel[4] O *D counter_gpio_config_example
*CAP
1 gpio_analog_sel[4] 0.00033266
2 *874:gpio_analog_sel[4] 0.00362896
3 *215:35 0.0760211
4 *215:33 0.10591
5 *215:9 0.0390708
6 *215:7 0.0124782
7 gpio_analog_sel[4] gpio_dm2[4] 5.73169e-05
8 gpio_analog_sel[4] gpio_holdover[4] 5.04569e-05
9 *215:9 *217:9 0.000286516
10 *215:9 *259:17 0.0218503
11 *215:9 *421:9 0.00965751
12 *215:33 *233:19 0.000101522
13 *215:33 *293:17 0.00364844
14 *215:33 *337:17 0.00285829
15 *215:33 *338:17 0.00380029
16 *215:33 *381:17 0.00340904
17 *215:33 *427:17 0.00449366
18 *215:33 *542:19 0.000184714
19 *215:33 *557:17 0.0025966
20 *215:33 *743:17 0.0001465
21 *215:33 *779:16 0.00886734
22 *215:33 *829:16 7.84191e-05
23 *215:35 *234:17 0.00578381
24 *215:35 *391:21 0.123032
25 *103:17 *215:35 0
26 *104:27 *215:33 0.00765888
27 *117:17 *215:33 0.0037728
28 *117:17 *215:35 0.00352158
29 *168:7 *215:7 0.000571697
30 *190:27 *215:33 0.00024899
31 *194:7 *215:7 0.00034488
*RES
1 *874:gpio_analog_sel[4] *215:7 7.88973 
2 *215:7 *215:9 253.065 
3 *215:9 *215:33 11.4185 
4 *215:33 *215:35 1935.21 
5 *215:35 gpio_analog_sel[4] 6.31045 
*END

*D_NET *216 0.295723
*CONN
*P gpio_analog_sel[5] O
*I *874:gpio_analog_sel[5] O *D counter_gpio_config_example
*CAP
1 gpio_analog_sel[5] 0.000202688
2 *874:gpio_analog_sel[5] 0.000188421
3 *216:17 0.034008
4 *216:15 0.0474078
5 *216:9 0.0948855
6 *216:7 0.0814715
7 *216:7 *351:7 3.19771e-05
8 *216:7 *410:15 3.82159e-05
9 *216:9 *351:7 3.48706e-06
10 *216:9 *351:9 0.000408484
11 *216:9 *410:15 0.000249795
12 *216:9 *479:7 0.0368274
13 *216:17 *392:17 0
*RES
1 *874:gpio_analog_sel[5] *216:7 0.332838 
2 *216:7 *216:9 223.083 
3 *216:9 *216:15 35.4913 
4 *216:15 *216:17 76.5219 
5 *216:17 gpio_analog_sel[5] 0.535167 
*END

*D_NET *217 0.601504
*CONN
*P gpio_analog_sel[6] O
*I *874:gpio_analog_sel[6] O *D counter_gpio_config_example
*CAP
1 gpio_analog_sel[6] 0.000106883
2 *874:gpio_analog_sel[6] 0.00330873
3 *217:13 0.107449
4 *217:11 0.107342
5 *217:9 0.0156078
6 *217:7 0.0189165
7 *217:7 *329:7 0.000754278
8 *217:9 *259:17 0.0236596
9 *217:9 *329:9 0.0537108
10 *217:9 *421:9 0.0203451
11 *217:13 gpio_dm2[6] 0.000544
12 *217:13 *349:13 0.249005
13 *217:13 *393:13 0
14 *217:13 *664:22 0
15 *189:7 *217:7 0.000468478
16 *215:9 *217:9 0.000286516
*RES
1 *874:gpio_analog_sel[6] *217:7 7.7732 
2 *217:7 *217:9 607.005 
3 *217:9 *217:11 0.5 
4 *217:11 *217:13 382.917 
5 *217:13 gpio_analog_sel[6] 0.307167 
*END

*D_NET *218 0.409076
*CONN
*P gpio_analog_sel[7] O
*I *874:gpio_analog_sel[7] O *D counter_gpio_config_example
*CAP
1 gpio_analog_sel[7] 0.000232392
2 *874:gpio_analog_sel[7] 0.000159385
3 *218:17 0.0811434
4 *218:15 0.080911
5 *218:13 0.0781011
6 *218:11 0.0781011
7 *218:9 0.040555
8 *218:7 0.0407144
9 *218:7 *320:7 4.14661e-05
10 *218:7 *320:9 5.68526e-06
11 *218:9 *226:9 0
12 *218:9 *320:9 0.00703503
13 *218:13 *358:13 0
14 *218:17 *350:19 0
15 *187:11 *218:7 4.14661e-05
16 *187:11 *218:9 0.00203429
*RES
1 *874:gpio_analog_sel[7] *218:7 0.449667 
2 *218:7 *218:9 105.967 
3 *218:9 *218:11 0.5 
4 *218:11 *218:13 197.628 
5 *218:13 *218:15 0.5 
6 *218:15 *218:17 193.638 
7 *218:17 gpio_analog_sel[7] 0.646633 
*END

*D_NET *219 0.597047
*CONN
*P gpio_analog_sel[8] O
*I *874:gpio_analog_sel[8] O *D counter_gpio_config_example
*CAP
1 gpio_analog_sel[8] 0.00014567
2 *874:gpio_analog_sel[8] 0.00551295
3 *219:13 0.16304
4 *219:11 0.162894
5 *219:9 0.0459925
6 *219:7 0.0515055
7 *219:7 *242:7 0.00110426
8 *219:7 *260:7 0
9 *219:7 *384:7 0.000111118
10 *219:9 *306:9 0.110923
11 *219:9 *393:9 0.0558172
12 *219:13 *395:13 0
*RES
1 *874:gpio_analog_sel[8] *219:7 12.0849 
2 *219:7 *219:9 1473.49 
3 *219:9 *219:11 0.5 
4 *219:11 *219:13 387.229 
5 *219:13 gpio_analog_sel[8] 0.418633 
*END

*D_NET *220 0.911258
*CONN
*P gpio_analog_sel[9] O
*I *874:gpio_analog_sel[9] O *D counter_gpio_config_example
*CAP
1 gpio_analog_sel[9] 2.42267e-05
2 *874:gpio_analog_sel[9] 0.00455692
3 *220:21 0.114803
4 *220:19 0.114779
5 *220:17 0.0280412
6 *220:15 0.0383656
7 *220:7 0.0148814
8 *220:7 *359:7 0
9 *220:15 *383:11 0.0186245
10 *220:17 *272:9 0.159034
11 *220:17 *288:9 0.00196631
12 *220:17 *379:13 0.0106096
13 *220:17 *382:9 0
14 *220:17 *383:11 0.00103038
15 *220:17 *396:15 0.000380362
16 *220:17 *396:17 0.149441
17 *220:21 gpio_dm2[9] 0.00170752
18 *220:21 gpio_holdover[9] 0
19 *220:21 *352:21 0.240973
20 *101:7 *220:7 0.000748242
21 *150:9 *220:15 0.00242254
22 *164:7 *220:7 0.000126587
23 *201:9 *220:17 0.00874378
*RES
1 *874:gpio_analog_sel[9] *220:7 11.2401 
2 *220:7 *220:15 41.3294 
3 *220:15 *220:17 1796.32 
4 *220:17 *220:19 0.5 
5 *220:19 *220:21 386.355 
6 *220:21 gpio_analog_sel[9] 0.0639667 
*END

*D_NET *221 0.286938
*CONN
*P gpio_dm0[0] O
*I *874:gpio_dm0[0] O *D counter_gpio_config_example
*CAP
1 gpio_dm0[0] 0.000109087
2 *874:gpio_dm0[0] 0.00793983
3 *221:17 0.112743
4 *221:15 0.129428
5 *221:11 0.0247339
6 *221:11 *385:7 4.99499e-05
7 *221:11 *385:9 0.0036021
8 *221:11 *551:7 0
9 *221:11 *551:9 0
10 *221:17 gpio_dm1[0] 0
11 gpio_analog_en[0] *221:17 0.00139263
12 gpio_analog_pol[0] *221:17 0.0017101
13 *170:17 *221:11 0.00522831
*RES
1 *874:gpio_dm0[0] *221:11 27.4407 
2 *221:11 *221:15 42.3127 
3 *221:15 *221:17 273.114 
4 *221:17 gpio_dm0[0] 0.3135 
*END

*D_NET *222 0.531254
*CONN
*P gpio_dm0[10] O
*I *874:gpio_dm0[10] O *D counter_gpio_config_example
*CAP
1 gpio_dm0[10] 6.29507e-05
2 *874:gpio_dm0[10] 0.000129077
3 *222:17 0.0731226
4 *222:15 0.0730597
5 *222:13 0.133516
6 *222:11 0.133516
7 *222:9 0.0398132
8 *222:7 0.0399423
9 *222:7 *549:11 4.7387e-05
10 *222:9 *320:17 0.0106198
11 *222:9 *375:17 0.00174612
12 *222:9 *429:9 0
13 *222:9 *549:11 0.000136274
14 *222:9 *716:27 0.0172409
15 *222:17 *530:17 0
16 gpio_analog_en[10] *222:17 0.000537862
17 gpio_analog_pol[10] *222:17 0.00771004
18 *90:17 *222:17 0
19 *126:11 *222:7 5.36926e-05
20 *126:11 *222:9 0
21 *130:11 *222:9 0
*RES
1 *874:gpio_dm0[10] *222:7 0.449667 
2 *222:7 *222:9 126.943 
3 *222:9 *222:11 0.5 
4 *222:11 *222:13 337.078 
5 *222:13 *222:15 0.5 
6 *222:15 *222:17 172.662 
7 *222:17 gpio_dm0[10] 0.175433 
*END

*D_NET *223 0.949478
*CONN
*P gpio_dm0[11] O
*I *874:gpio_dm0[11] O *D counter_gpio_config_example
*CAP
1 gpio_dm0[11] 0.00252632
2 *874:gpio_dm0[11] 0.000425115
3 *223:13 0.107485
4 *223:11 0.104959
5 *223:9 0.0381137
6 *223:7 0.0385388
7 *223:7 *296:7 3.77899e-05
8 *223:7 *426:7 0.000115924
9 *223:9 *224:9 0.172438
10 *223:9 *225:9 0.199063
11 *223:9 *264:9 0.000775516
12 *223:9 *384:9 0.0378299
13 *223:9 *434:9 0
14 gpio_analog_en[11] gpio_dm0[11] 0.000578635
15 *91:21 gpio_dm0[11] 0.000397479
16 *91:21 *223:13 0.246087
17 *122:193 *223:9 0.000106875
18 *135:15 gpio_dm0[11] 0
19 *135:15 *223:13 0
*RES
1 *874:gpio_dm0[11] *223:7 1.59693 
2 *223:7 *223:9 2394.04 
3 *223:9 *223:11 0.5 
4 *223:11 *223:13 371.575 
5 *223:13 gpio_dm0[11] 5.83743 
*END

*D_NET *224 0.726431
*CONN
*P gpio_dm0[12] O
*I *874:gpio_dm0[12] O *D counter_gpio_config_example
*CAP
1 gpio_dm0[12] 0.000113935
2 *874:gpio_dm0[12] 0.000449673
3 *224:13 0.154953
4 *224:11 0.154839
5 *224:9 0.0413196
6 *224:7 0.0417693
7 *224:9 *225:9 0.00873614
8 *224:9 *264:9 0.142567
9 *224:13 *532:23 0
10 gpio_analog_en[12] *224:13 0.00115827
11 gpio_analog_pol[12] *224:13 0.00783336
12 *123:7 *224:7 0.00014109
13 *197:7 *224:7 0.000112986
14 *223:9 *224:9 0.172438
*RES
1 *874:gpio_dm0[12] *224:7 1.6552 
2 *224:7 *224:9 2118.14 
3 *224:9 *224:11 0.5 
4 *224:11 *224:13 376.799 
5 *224:13 gpio_dm0[12] 0.327433 
*END

*D_NET *225 0.839849
*CONN
*P gpio_dm0[13] O
*I *874:gpio_dm0[13] O *D counter_gpio_config_example
*CAP
1 gpio_dm0[13] 2.04951e-05
2 *874:gpio_dm0[13] 0.000333872
3 *225:13 0.114704
4 *225:11 0.114684
5 *225:9 0.103664
6 *225:7 0.103998
7 *225:9 *302:9 0
8 *225:9 *324:17 0
9 *225:9 *434:9 0
10 *225:9 *532:19 0
11 *225:13 *533:25 0.193515
12 gpio_analog_en[13] *225:13 0
13 gpio_analog_pol[13] *225:13 0.00085188
14 *93:21 *225:13 0
15 *119:7 *225:7 0.000138824
16 *147:19 *225:9 0
17 *212:7 *225:7 0.000138824
18 *223:9 *225:9 0.199063
19 *224:9 *225:9 0.00873614
*RES
1 *874:gpio_dm0[13] *225:7 1.53867 
2 *225:7 *225:9 2757.68 
3 *225:9 *225:11 0.5 
4 *225:11 *225:13 376.683 
5 *225:13 gpio_dm0[13] 0.0589 
*END

*D_NET *226 0.789747
*CONN
*P gpio_dm0[14] O
*I *874:gpio_dm0[14] O *D counter_gpio_config_example
*CAP
1 gpio_dm0[14] 0.0102123
2 *874:gpio_dm0[14] 0.000105841
3 *226:13 0.191248
4 *226:11 0.181035
5 *226:9 0.0705649
6 *226:7 0.0706707
7 gpio_dm0[14] *534:34 0
8 *226:7 *320:7 3.1682e-05
9 *226:9 *320:7 1.86654e-05
10 *226:9 *320:9 0.00703503
11 *226:9 *562:17 0.177191
12 *226:13 *711:21 0
13 *226:13 *799:13 0.0714982
14 gpio_analog_en[14] gpio_dm0[14] 5.13014e-05
15 gpio_analog_pol[14] gpio_dm0[14] 0
16 *94:11 *226:7 3.42717e-05
17 *94:11 *226:9 0.000239667
18 *94:17 gpio_dm0[14] 0.00981045
19 *218:9 *226:9 0
*RES
1 *874:gpio_dm0[14] *226:7 0.333133 
2 *226:7 *226:9 269.58 
3 *226:9 *226:11 0.5 
4 *226:11 *226:13 451.98 
5 *226:13 gpio_dm0[14] 31.2832 
*END

*D_NET *227 0.542213
*CONN
*P gpio_dm0[15] O
*I *874:gpio_dm0[15] O *D counter_gpio_config_example
*CAP
1 gpio_dm0[15] 7.79348e-05
2 *874:gpio_dm0[15] 0.0150858
3 *227:21 0.00636218
4 *227:19 0.00628425
5 *227:17 0.0986134
6 *227:15 0.0986134
7 *227:13 0.149792
8 *227:11 0.164878
9 *227:11 *254:17 0.001051
10 *227:11 *544:11 0
11 *227:17 *402:13 0
12 gpio_analog_en[15] gpio_dm0[15] 0
13 gpio_analog_pol[15] gpio_dm0[15] 0
14 *117:15 *227:11 0.000309555
15 *122:195 *227:11 0
16 *124:11 *227:11 0.00114662
17 *139:17 *227:21 0
*RES
1 *874:gpio_dm0[15] *227:11 36.1718 
2 *227:11 *227:13 2716.36 
3 *227:13 *227:15 0.5 
4 *227:15 *227:17 239.048 
5 *227:17 *227:19 0.5 
6 *227:19 *227:21 114.855 
7 *227:21 gpio_dm0[15] 1.35 
*END

*D_NET *228 0.677401
*CONN
*P gpio_dm0[16] O
*I *874:gpio_dm0[16] O *D counter_gpio_config_example
*CAP
1 gpio_dm0[16] 0.147868
2 *874:gpio_dm0[16] 0.000516406
3 *228:15 0.147868
4 *228:13 0.117936
5 *228:11 0.117936
6 *228:9 0.0142771
7 *228:7 0.0147935
8 *228:7 *280:7 0.000132282
9 *228:7 *406:7 0
10 *228:9 *229:9 0.0486694
11 *228:9 *264:9 0.0447193
12 *228:9 *384:9 0.00718111
13 *228:13 *480:15 0
14 *228:13 *678:11 0
15 *228:13 *680:11 0
16 *228:13 *684:11 0.0122669
17 *228:13 *791:11 0
18 *228:13 *812:11 0.00190849
19 gpio_analog_en[16] gpio_dm0[16] 0
20 gpio_analog_pol[16] gpio_dm0[16] 0
21 *212:9 *228:9 0.00132812
*RES
1 *874:gpio_dm0[16] *228:7 1.77173 
2 *228:7 *228:9 666.165 
3 *228:9 *228:11 0.5 
4 *228:11 *228:13 287.176 
5 *228:13 *228:15 0.5 
6 *228:15 gpio_dm0[16] 2579.12 
*END

*D_NET *229 0.626158
*CONN
*P gpio_dm0[17] O
*I *874:gpio_dm0[17] O *D counter_gpio_config_example
*CAP
1 gpio_dm0[17] 0.142575
2 *874:gpio_dm0[17] 0.000497365
3 *229:15 0.142575
4 *229:13 0.11077
5 *229:11 0.11077
6 *229:9 0.0131909
7 *229:7 0.0136883
8 gpio_dm0[17] *449:15 0
9 *229:7 *374:7 0.000160475
10 *229:7 *537:7 0.000162079
11 *229:9 *271:9 0.000621515
12 *229:9 *360:9 0.0347887
13 *229:9 *663:9 0
14 *229:13 *407:13 0
15 *229:13 *480:15 0
16 *229:13 *678:11 0
17 *229:13 *680:11 0
18 *229:13 *722:11 0
19 *229:13 *732:15 0.00768973
20 gpio_analog_en[17] gpio_dm0[17] 0
21 gpio_analog_pol[17] gpio_dm0[17] 0
22 *228:9 *229:9 0.0486694
*RES
1 *874:gpio_dm0[17] *229:7 1.83 
2 *229:7 *229:9 564.165 
3 *229:9 *229:11 0.5 
4 *229:11 *229:13 254.663 
5 *229:13 *229:15 0.5 
6 *229:15 gpio_dm0[17] 2589.32 
*END

*D_NET *230 0.454247
*CONN
*P gpio_dm0[18] O
*I *874:gpio_dm0[18] O *D counter_gpio_config_example
*CAP
1 gpio_dm0[18] 0.153749
2 *874:gpio_dm0[18] 0.000159903
3 *230:11 0.153749
4 *230:9 0.0339343
5 *230:7 0.0340942
6 *230:7 *235:11 4.46621e-05
7 *230:9 *235:11 3.86054e-05
8 *230:9 *240:11 0
9 *230:9 *694:17 0.0784321
10 *230:9 *826:22 0
11 gpio_analog_en[18] gpio_dm0[18] 0
12 gpio_analog_pol[18] gpio_dm0[18] 0
13 *188:7 *230:7 4.58267e-05
14 *188:9 *230:9 0
*RES
1 *874:gpio_dm0[18] *230:7 0.294741 
2 *230:7 *230:9 120.912 
3 *230:9 *230:11 0.5 
4 *230:11 gpio_dm0[18] 2789.24 
*END

*D_NET *231 0.376828
*CONN
*P gpio_dm0[19] O
*I *874:gpio_dm0[19] O *D counter_gpio_config_example
*CAP
1 gpio_dm0[19] 0.163024
2 *874:gpio_dm0[19] 0.000164334
3 *231:11 0.163024
4 *231:9 0.0220431
5 *231:7 0.0222074
6 *231:7 *386:7 0
7 *231:9 *386:9 0
8 gpio_analog_en[19] gpio_dm0[19] 0
9 gpio_analog_pol[19] gpio_dm0[19] 0
10 *175:7 *231:7 3.80212e-05
11 *175:9 *231:7 5.17202e-06
12 *175:9 *231:9 0.00632224
*RES
1 *874:gpio_dm0[19] *231:7 0.449667 
2 *231:7 *231:9 56.411 
3 *231:9 *231:11 0.5 
4 *231:11 gpio_dm0[19] 2954.48 
*END

*D_NET *232 0.347623
*CONN
*P gpio_dm0[1] O
*I *874:gpio_dm0[1] O *D counter_gpio_config_example
*CAP
1 gpio_dm0[1] 0.00144134
2 *874:gpio_dm0[1] 0.0424444
3 *232:18 0.130347
4 *232:16 0.17135
5 gpio_dm0[1] gpio_dm1[1] 0.000314334
6 gpio_dm0[1] *833:13 0
7 *232:16 *298:16 0.000656002
8 *232:16 *664:16 0.000142346
9 *232:18 gpio_dm1[1] 1.44699e-05
10 gpio_analog_en[1] gpio_dm0[1] 0.000835793
11 gpio_analog_en[1] *232:18 0
12 gpio_analog_pol[1] gpio_dm0[1] 0
13 *120:10 *232:16 7.78692e-05
14 *155:25 gpio_dm0[1] 0
*RES
1 *874:gpio_dm0[1] *232:16 11.3825 
2 *232:16 *232:18 297.052 
3 *232:18 gpio_dm0[1] 10.049 
*END

*D_NET *233 0.493621
*CONN
*P gpio_dm0[20] O
*I *874:gpio_dm0[20] O *D counter_gpio_config_example
*CAP
1 gpio_dm0[20] 7.849e-05
2 *874:gpio_dm0[20] 0.00063207
3 *233:25 0.151072
4 *233:23 0.150993
5 *233:21 0.0115778
6 *233:19 0.0159462
7 *233:9 0.0145803
8 *233:7 0.0108439
9 *233:9 *271:9 0.0235134
10 *233:9 *663:9 0
11 *233:19 *271:19 0.000726104
12 *233:19 *323:15 3.97095e-06
13 *233:19 *542:19 0.0164678
14 *233:19 *544:17 0.00810845
15 *233:19 *770:7 0.000103421
16 *233:19 *783:11 0.00017007
17 *233:21 *271:21 0.0495009
18 *233:21 *323:15 0.000666211
19 *233:21 *542:21 0.0267065
20 *233:21 *743:17 0.00930423
21 gpio_analog_en[20] gpio_dm0[20] 0
22 gpio_analog_en[20] *233:25 0
23 gpio_analog_pol[20] gpio_dm0[20] 0
24 gpio_analog_pol[20] *233:25 0
25 *103:27 *233:21 0.000167519
26 *104:27 *233:19 0.00202698
27 *152:7 *233:7 0.000165299
28 *189:7 *233:7 0.000165299
29 *215:33 *233:19 0.000101522
*RES
1 *874:gpio_dm0[20] *233:7 2.0048 
2 *233:7 *233:9 271.935 
3 *233:9 *233:19 31.5236 
4 *233:19 *233:21 452.4 
5 *233:21 *233:23 2 
6 *233:23 *233:25 2632.34 
7 *233:25 gpio_dm0[20] 1.35 
*END

*D_NET *234 0.392312
*CONN
*P gpio_dm0[21] O
*I *874:gpio_dm0[21] O *D counter_gpio_config_example
*CAP
1 gpio_dm0[21] 8.17048e-05
2 *874:gpio_dm0[21] 0.00224882
3 *234:21 0.145759
4 *234:19 0.145678
5 *234:17 0.000800787
6 *234:15 0.000800787
7 *234:13 0.00789544
8 *234:11 0.0101443
9 *234:11 *358:7 3.91044e-05
10 *234:11 *546:11 3.84114e-05
11 *234:11 *815:17 0
12 *234:13 *543:13 0.0344065
13 *234:13 *815:17 0.000296368
14 *234:17 *391:21 0.00578548
15 gpio_analog_en[21] gpio_dm0[21] 0
16 gpio_analog_pol[21] gpio_dm0[21] 0
17 *117:17 *234:17 0.00123369
18 *146:29 *234:21 0
19 *158:11 *234:13 0.031001
20 *195:9 *234:13 0.000318962
21 *215:35 *234:17 0.00578381
*RES
1 *874:gpio_dm0[21] *234:11 36.9956 
2 *234:11 *234:13 401.783 
3 *234:13 *234:15 2 
4 *234:15 *234:17 52.89 
5 *234:17 *234:19 2 
6 *234:19 *234:21 2639.23 
7 *234:21 gpio_dm0[21] 1.35 
*END

*D_NET *235 0.401389
*CONN
*P gpio_dm0[22] O
*I *874:gpio_dm0[22] O *D counter_gpio_config_example
*CAP
1 gpio_dm0[22] 0.147285
2 *874:gpio_dm0[22] 0.000306664
3 *235:19 0.153797
4 *235:13 0.0105995
5 *235:11 0.00439417
6 gpio_dm0[22] *675:5 0
7 gpio_dm0[22] *678:5 0.00442335
8 gpio_dm0[22] *753:13 0.00371896
9 *235:11 *240:11 6.80382e-05
10 *235:13 *425:13 0.0128379
11 *235:13 *427:13 0.00800359
12 *235:13 *543:13 0.000432048
13 *235:13 *546:13 0
14 *235:19 *367:27 0.027296
15 *235:19 *743:17 0.0257128
16 gpio_analog_en[22] gpio_dm0[22] 0
17 gpio_analog_pol[22] gpio_dm0[22] 0
18 *103:27 *235:19 0.000466412
19 *104:27 *235:19 0.0019635
20 *142:13 *235:19 0
21 *230:7 *235:11 4.46621e-05
22 *230:9 *235:11 3.86054e-05
*RES
1 *874:gpio_dm0[22] *235:11 1.24987 
2 *235:11 *235:13 156.675 
3 *235:13 *235:19 42.6987 
4 *235:19 gpio_dm0[22] 2634.71 
*END

*D_NET *236 0.594715
*CONN
*P gpio_dm0[23] O
*I *874:gpio_dm0[23] O *D counter_gpio_config_example
*CAP
1 gpio_dm0[23] 2.18948e-05
2 *874:gpio_dm0[23] 5.45315e-05
3 *236:17 0.00344251
4 *236:15 0.00342062
5 *236:13 0.0307772
6 *236:11 0.0307772
7 *236:9 0.115304
8 *236:7 0.115359
9 *236:7 *530:7 3.39034e-05
10 *236:9 *237:9 0.0492236
11 *236:9 *245:9 0.00210821
12 *236:9 *286:21 0.0532547
13 *236:13 *451:9 0
14 gpio_analog_en[23] *236:17 0
15 gpio_analog_pol[23] *236:17 0
16 *138:7 *236:7 3.39034e-05
17 *158:11 *236:9 0.000703327
18 *192:9 *236:9 0.1902
*RES
1 *874:gpio_dm0[23] *236:7 0.722933 
2 *236:7 *236:9 2880.84 
3 *236:9 *236:11 0.5 
4 *236:11 *236:13 73.9201 
5 *236:13 *236:15 0.5 
6 *236:15 *236:17 58.755 
7 *236:17 gpio_dm0[23] 0.3975 
*END

*D_NET *237 0.778894
*CONN
*P gpio_dm0[24] O
*I *874:gpio_dm0[24] O *D counter_gpio_config_example
*CAP
1 gpio_dm0[24] 0.0020699
2 *874:gpio_dm0[24] 8.4057e-05
3 *237:13 0.028845
4 *237:11 0.0267751
5 *237:9 0.131303
6 *237:7 0.131387
7 *237:7 *355:11 3.23114e-05
8 *237:7 *409:11 3.31358e-05
9 *237:9 gpio_dm0[37] 3.02628e-05
10 *237:9 *245:9 0.0191991
11 *237:9 *286:21 0.111768
12 *237:9 *368:57 0
13 *237:9 *372:25 0.00327431
14 *237:9 *420:12 0
15 *237:9 *545:16 0
16 *237:9 *553:16 0.000144131
17 gpio_analog_en[24] gpio_dm0[24] 0.000469026
18 gpio_analog_en[24] *237:13 0
19 *110:6 *237:9 0.000460735
20 *120:8 *237:9 0.000703431
21 *149:25 gpio_dm0[24] 0.00046516
22 *149:25 *237:13 0.0642119
23 *192:9 *237:9 0.0343506
24 *195:9 *237:9 0.162075
25 *200:13 *237:9 0.0119893
26 *208:30 *237:9 0
27 *236:9 *237:9 0.0492236
*RES
1 *874:gpio_dm0[24] *237:7 0.71397 
2 *237:7 *237:9 486.562 
3 *237:9 *237:11 0.5 
4 *237:11 *237:13 97.1103 
5 *237:13 gpio_dm0[24] 5.03817 
*END

*D_NET *238 0.517155
*CONN
*P gpio_dm0[25] O
*I *874:gpio_dm0[25] O *D counter_gpio_config_example
*CAP
1 gpio_dm0[25] 0.00118596
2 *874:gpio_dm0[25] 0.00173763
3 *238:33 0.0408587
4 *238:31 0.0396727
5 *238:29 0.0509819
6 *238:27 0.0511199
7 *238:17 0.00115639
8 *238:15 0.00101832
9 *238:13 0.00460524
10 *238:11 0.00634287
11 *238:11 *269:11 0.000376933
12 *238:11 *364:7 3.98266e-05
13 *238:11 *364:9 0.000343641
14 *238:13 *240:13 0.0126569
15 *238:13 *330:13 6.84676e-05
16 *238:13 *372:13 0.0182196
17 *238:13 *738:21 0.00170945
18 *238:17 *259:29 0.000348555
19 *238:17 *282:17 0.00508245
20 *238:17 *661:17 0.00531117
21 *238:17 *694:9 0.000478693
22 *238:17 *716:19 0.000208669
23 *238:27 *749:19 4.32417e-05
24 *238:29 *454:13 0.0953936
25 *238:29 *455:13 0.169303
26 gpio_analog_pol[25] gpio_dm0[25] 0.000485383
27 gpio_analog_pol[25] *238:33 0.00836546
28 *106:25 gpio_dm0[25] 0
29 *106:25 *238:33 0
30 *146:27 *238:27 3.99991e-05
*RES
1 *874:gpio_dm0[25] *238:11 4.57107 
2 *238:11 *238:13 213.413 
3 *238:13 *238:15 2 
4 *238:15 *238:17 52.89 
5 *238:17 *238:27 4.57463 
6 *238:27 *238:29 318.559 
7 *238:29 *238:31 0.5 
8 *238:31 *238:33 94.0513 
9 *238:33 gpio_dm0[25] 5.65617 
*END

*D_NET *239 0.507763
*CONN
*P gpio_dm0[26] O
*I *874:gpio_dm0[26] O *D counter_gpio_config_example
*CAP
1 gpio_dm0[26] 0.00213464
2 *874:gpio_dm0[26] 0.00278044
3 *239:25 0.0468864
4 *239:23 0.0447518
5 *239:21 0.0641
6 *239:19 0.0641235
7 *239:13 0.00383281
8 *239:11 0.00658973
9 *239:11 *372:11 0.000457658
10 *239:11 *425:11 6.85128e-05
11 *239:13 *281:13 0.00924768
12 *239:13 *357:19 0.00107504
13 *239:13 *376:13 0.000274836
14 *239:13 *749:25 0
15 *239:19 *243:15 7.94016e-06
16 *239:19 *540:11 4.20804e-05
17 *239:21 *281:13 0.00479827
18 *239:21 *281:21 0.141193
19 *239:21 *286:15 0.00167276
20 *239:21 *376:13 0.109294
21 *239:21 *423:13 0
22 gpio_analog_en[26] gpio_dm0[26] 0.000458829
23 gpio_analog_en[26] *239:25 0.00373781
24 gpio_analog_pol[26] gpio_dm0[26] 0.000235537
25 gpio_analog_pol[26] *239:25 0
26 *140:9 *239:11 0
*RES
1 *874:gpio_dm0[26] *239:11 6.90144 
2 *239:11 *239:13 105.165 
3 *239:13 *239:19 1.06713 
4 *239:19 *239:21 318.559 
5 *239:21 *239:23 0.5 
6 *239:23 *239:25 103.287 
7 *239:25 gpio_dm0[26] 4.8507 
*END

*D_NET *240 0.447378
*CONN
*P gpio_dm0[27] O
*I *874:gpio_dm0[27] O *D counter_gpio_config_example
*CAP
1 gpio_dm0[27] 0.0275753
2 *874:gpio_dm0[27] 0.00188385
3 *240:28 6.61132e-06
4 *240:23 0.0275687
5 *240:21 0.0468437
6 *240:19 0.0491468
7 *240:13 0.00808208
8 *240:11 0.00766286
9 gpio_dm0[27] gpio_dm1[27] 0
10 *240:11 *398:11 0.000430562
11 *240:13 *330:13 3.53895e-05
12 *240:19 *282:27 4.32417e-05
13 *240:19 *286:19 0.00242129
14 *240:19 *425:17 0.00173265
15 *240:19 *557:17 0.000116982
16 *240:19 *705:39 0.000279985
17 *240:19 *749:19 0.00267546
18 *240:19 *787:11 0.000247141
19 *240:21 *453:17 0.0536017
20 *240:21 *454:13 0.140512
21 gpio_analog_en[27] gpio_dm0[27] 0.00138724
22 gpio_analog_pol[27] gpio_dm0[27] 0
23 gpio_analog_pol[27] *240:28 0
24 *108:25 gpio_dm0[27] 0.062126
25 *117:17 *240:19 0
26 *146:27 *240:19 0.000272875
27 *149:13 *240:13 0
28 *230:9 *240:11 0
29 *235:11 *240:11 6.80382e-05
30 *238:13 *240:13 0.0126569
*RES
1 *874:gpio_dm0[27] *240:11 4.62933 
2 *240:11 *240:13 148.515 
3 *240:13 *240:19 9.6906 
4 *240:19 *240:21 264.467 
5 *240:21 *240:23 0.5 
6 *240:23 gpio_dm0[27] 96.5669 
7 gpio_dm0[27] *240:28 0.0616216 
*END

*D_NET *241 0.422171
*CONN
*P gpio_dm0[28] O
*I *874:gpio_dm0[28] O *D counter_gpio_config_example
*CAP
1 gpio_dm0[28] 0.00621299
2 *874:gpio_dm0[28] 0.00360758
3 *241:19 0.0287754
4 *241:17 0.0229347
5 *241:9 0.0524771
6 *241:7 0.0557124
7 gpio_dm0[28] *413:17 0.000237784
8 *241:7 *296:7 3.77899e-05
9 *241:7 *666:15 0.000397146
10 *241:9 *305:9 0.0617098
11 *241:17 gpio_dm2[31] 4.57382e-05
12 *241:17 gpio_holdover[31] 5.11552e-05
13 *241:19 *268:17 0.0109159
14 *241:19 *374:9 0.0286852
15 *241:19 *418:9 0.00339333
16 *241:19 *440:9 0.00505065
17 gpio_analog_pol[28] gpio_dm0[28] 0.000669628
18 *107:9 *241:19 0.00917145
19 *109:17 gpio_dm0[28] 0.00110949
20 *153:17 gpio_dm0[28] 0.00452023
21 *178:17 *241:19 0.00936064
22 *179:17 *241:9 0.111791
23 *184:9 *241:9 0.0053037
*RES
1 *874:gpio_dm0[28] *241:7 8.6472 
2 *241:7 *241:9 1635.17 
3 *241:9 *241:17 1.92087 
4 *241:17 *241:19 84.4487 
5 *241:19 gpio_dm0[28] 17.7412 
*END

*D_NET *242 0.270599
*CONN
*P gpio_dm0[29] O
*I *874:gpio_dm0[29] O *D counter_gpio_config_example
*CAP
1 gpio_dm0[29] 0.003964
2 *874:gpio_dm0[29] 0.00664365
3 *242:9 0.0810202
4 *242:7 0.0836998
5 gpio_dm0[29] *286:25 0
6 *242:7 *266:15 5.83965e-05
7 *242:7 *307:15 7.23804e-05
8 *242:9 *248:9 0
9 *242:9 *289:9 0
10 *242:9 *291:9 0.0525945
11 *242:9 *373:17 0.0330149
12 gpio_analog_pol[29] gpio_dm0[29] 0.00752658
13 *110:10 gpio_dm0[29] 0
14 *132:7 *242:7 2.63551e-05
15 *161:9 *242:9 0
16 *206:11 *242:9 0.000873723
17 *219:7 *242:7 0.00110426
*RES
1 *874:gpio_dm0[29] *242:7 14.2699 
2 *242:7 *242:9 260.764 
3 *242:9 gpio_dm0[29] 12.5732 
*END

*D_NET *243 0.294813
*CONN
*P gpio_dm0[2] O
*I *874:gpio_dm0[2] O *D counter_gpio_config_example
*CAP
1 gpio_dm0[2] 0.00126872
2 *874:gpio_dm0[2] 0.0137699
3 *243:17 0.125864
4 *243:15 0.138365
5 gpio_dm0[2] *342:25 0
6 gpio_dm0[2] *833:13 0
7 *243:15 *253:11 0.000668124
8 *243:15 *357:19 4.88751e-05
9 *243:15 *376:13 0.00626
10 *243:15 *419:15 0.00185573
11 *243:15 *540:11 0.0006619
12 *243:15 *749:25 0.000697326
13 *243:17 gpio_inp_dis[2] 0.000399792
14 *243:17 *255:9 0
15 *243:17 *273:9 0
16 gpio_analog_en[2] gpio_dm0[2] 0
17 gpio_analog_pol[2] gpio_dm0[2] 0.00164173
18 *128:17 *243:15 0.00304452
19 *155:25 gpio_dm0[2] 0
20 *214:13 *243:15 0.000259903
21 *239:19 *243:15 7.94016e-06
*RES
1 *874:gpio_dm0[2] *243:15 39.3737 
2 *243:15 *243:17 290.585 
3 *243:17 gpio_dm0[2] 7.57883 
*END

*D_NET *244 0.403591
*CONN
*P gpio_dm0[30] O
*I *874:gpio_dm0[30] O *D counter_gpio_config_example
*CAP
1 gpio_dm0[30] 0.00743431
2 *874:gpio_dm0[30] 0.00169317
3 *244:9 0.089851
4 *244:7 0.0841098
5 gpio_dm0[30] gpio_dm1[30] 0
6 *244:9 *316:11 0.0254329
7 *244:9 *369:9 0.024799
8 *244:9 *392:13 0
9 *244:9 *426:9 0.0120644
10 *244:9 *733:13 0.00128637
11 *244:9 *778:13 0.00277715
12 gpio_analog_en[30] gpio_dm0[30] 0.000491622
13 gpio_analog_pol[30] gpio_dm0[30] 0
14 *91:9 *244:9 0.00129455
15 *93:15 *244:9 0.0107456
16 *93:17 *244:9 0.0107596
17 *96:7 *244:7 0.000408905
18 *105:9 *244:9 0.000559672
19 *105:17 *244:9 0.0331252
20 *112:33 gpio_dm0[30] 0.0121631
21 *116:9 *244:9 0.0275731
22 *122:15 *244:9 0.00443359
23 *122:17 *244:9 0.00103337
24 *127:9 *244:9 0.00827951
25 *180:9 *244:9 0.0136464
26 *183:7 *244:7 0.000410488
27 *194:9 *244:9 0.0292185
*RES
1 *874:gpio_dm0[30] *244:7 4.59767 
2 *244:7 *244:9 284.881 
3 *244:9 gpio_dm0[30] 22.0175 
*END

*D_NET *245 0.331183
*CONN
*P gpio_dm0[31] O
*I *874:gpio_dm0[31] O *D counter_gpio_config_example
*CAP
1 gpio_dm0[31] 0.000430527
2 *874:gpio_dm0[31] 0.000122902
3 *245:13 0.0450266
4 *245:11 0.0445961
5 *245:9 0.0282697
6 *245:7 0.0283926
7 gpio_dm0[31] *726:21 0.000685619
8 *245:7 *299:7 3.60549e-05
9 *245:7 *299:9 1.42636e-06
10 *245:13 *810:17 0
11 gpio_analog_pol[31] gpio_dm0[31] 0
12 gpio_analog_pol[31] *245:13 0
13 *113:17 gpio_dm0[31] 0.000138483
14 *140:7 *245:7 3.52542e-05
15 *158:11 *245:9 0.0617944
16 *192:9 *245:9 0.100346
17 *236:9 *245:9 0.00210821
18 *237:9 *245:9 0.0191991
*RES
1 *874:gpio_dm0[31] *245:7 0.830578 
2 *245:7 *245:9 1183.56 
3 *245:9 *245:11 0.5 
4 *245:11 *245:13 101.247 
5 *245:13 gpio_dm0[31] 9.31172 
*END

*D_NET *246 0.294068
*CONN
*P gpio_dm0[32] O
*I *874:gpio_dm0[32] O *D counter_gpio_config_example
*CAP
1 gpio_dm0[32] 0.00220586
2 *874:gpio_dm0[32] 0.0161501
3 *246:53 0.0331666
4 *246:51 0.0319851
5 *246:37 0.0155469
6 *246:35 0.0156303
7 *246:31 0.017258
8 gpio_dm0[32] gpio_inp_dis[32] 0
9 *246:31 *282:13 0.00104264
10 *246:31 *415:13 0.0071863
11 *246:31 *533:19 0.000939479
12 *246:35 *415:13 0.00180331
13 *246:37 *282:13 0.000177213
14 *246:37 *330:21 0.00863112
15 *246:37 *415:13 0.0402055
16 *246:51 *330:21 0.000100791
17 *246:51 *415:13 4.14198e-05
18 *246:53 gpio_inp_dis[32] 0
19 gpio_analog_en[32] gpio_dm0[32] 0.00044461
20 gpio_analog_en[32] *246:53 0
21 gpio_analog_pol[32] gpio_dm0[32] 0.000141658
22 *114:29 *246:51 0.000124812
23 *114:29 *246:53 0.0600695
24 *121:11 *246:31 0.000550794
25 *149:13 *246:31 0.000586661
26 *149:13 *246:37 0.0133211
27 *153:11 *246:31 0.000555432
28 *158:15 *246:53 0
29 *203:13 *246:31 0.00920986
30 *203:13 *246:35 0.00324953
31 *203:13 *246:37 0.0137434
*RES
1 *874:gpio_dm0[32] *246:31 46.0683 
2 *246:31 *246:35 6.31053 
3 *246:35 *246:37 75.962 
4 *246:37 *246:51 2.82053 
5 *246:51 *246:53 99.674 
6 *246:53 gpio_dm0[32] 4.81017 
*END

*D_NET *247 0.20167
*CONN
*P gpio_dm0[33] O
*I *874:gpio_dm0[33] O *D counter_gpio_config_example
*CAP
1 gpio_dm0[33] 0.00536298
2 *874:gpio_dm0[33] 0.00494515
3 *247:9 0.0301011
4 *247:7 0.0296833
5 gpio_dm0[33] gpio_dm1[33] 0
6 gpio_dm0[33] *373:15 0
7 gpio_dm0[33] *775:9 0.000175807
8 *247:7 *322:7 0
9 *247:7 *542:7 0.000247274
10 *247:9 *284:9 0
11 *247:9 *314:9 0.016667
12 gpio_analog_en[33] gpio_dm0[33] 0.00926325
13 gpio_analog_pol[33] gpio_dm0[33] 0
14 *183:9 *247:9 0.00346313
15 *191:9 *247:9 0.0147448
16 *193:17 *247:9 0.0246874
17 *196:9 *247:9 0.0623285
18 *206:11 *247:7 0
*RES
1 *874:gpio_dm0[33] *247:7 10.4243 
2 *247:7 *247:9 117.524 
3 *247:9 gpio_dm0[33] 16.1452 
*END

*D_NET *248 0.173109
*CONN
*P gpio_dm0[34] O
*I *874:gpio_dm0[34] O *D counter_gpio_config_example
*CAP
1 gpio_dm0[34] 0.00468399
2 *874:gpio_dm0[34] 0.00566777
3 *248:9 0.0253582
4 *248:7 0.026342
5 gpio_dm0[34] *413:17 0.000237784
6 *248:7 *365:7 0.00175556
7 *248:9 *280:9 0.00214509
8 *248:9 *289:9 0.0397838
9 *248:9 *307:9 0
10 *248:9 *366:9 0.00330132
11 gpio_analog_en[34] gpio_dm0[34] 0.0010752
12 gpio_analog_pol[34] gpio_dm0[34] 0.000656562
13 *159:9 *248:9 0
14 *160:21 gpio_dm0[34] 0.000983571
15 *161:9 *248:9 0.044098
16 *163:11 *248:9 0.016018
17 *191:7 *248:7 0.0010023
18 *242:9 *248:9 0
*RES
1 *874:gpio_dm0[34] *248:7 14.9691 
2 *248:7 *248:9 112.442 
3 *248:9 gpio_dm0[34] 12.2236 
*END

*D_NET *249 0.146536
*CONN
*P gpio_dm0[35] O
*I *874:gpio_dm0[35] O *D counter_gpio_config_example
*CAP
1 gpio_dm0[35] 0.00851733
2 *874:gpio_dm0[35] 0.00272547
3 *249:9 0.0270519
4 *249:7 0.02126
5 gpio_dm0[35] *413:15 2.90695e-05
6 gpio_dm0[35] *462:15 9.45007e-05
7 *249:7 *537:7 0.000313439
8 *249:9 *274:9 0.00660654
9 *249:9 *325:9 0.0115277
10 *249:9 *470:11 0.00241659
11 gpio_analog_en[35] gpio_dm0[35] 0
12 gpio_analog_pol[35] gpio_dm0[35] 0.00706706
13 *95:9 *249:9 0.00842059
14 *96:9 *249:9 0.00177
15 *174:9 *249:9 0.0279993
16 *197:9 *249:9 0.0207364
17 *204:9 *249:9 0
*RES
1 *874:gpio_dm0[35] *249:7 6.1126 
2 *249:7 *249:9 78.3332 
3 *249:9 gpio_dm0[35] 22.853 
*END

*D_NET *250 0.140285
*CONN
*P gpio_dm0[36] O
*I *874:gpio_dm0[36] O *D counter_gpio_config_example
*CAP
1 gpio_dm0[36] 0.060994
2 *874:gpio_dm0[36] 0.060994
3 gpio_dm0[36] gpio_dm1[36] 0.017704
4 gpio_dm0[36] *416:23 4.75733e-05
5 gpio_dm0[36] *424:35 2.38374e-05
6 gpio_dm0[36] *545:16 0.000496499
7 gpio_analog_en[36] gpio_dm0[36] 2.53234e-05
8 gpio_analog_pol[36] gpio_dm0[36] 0
*RES
1 *874:gpio_dm0[36] gpio_dm0[36] 23.0916 
*END

*D_NET *251 0.128009
*CONN
*P gpio_dm0[37] O
*I *874:gpio_dm0[37] O *D counter_gpio_config_example
*CAP
1 gpio_dm0[37] 0.0616111
2 *874:gpio_dm0[37] 0.0616111
3 gpio_dm0[37] *276:13 0.00238431
4 gpio_dm0[37] *427:21 0
5 gpio_dm0[37] *726:21 0.00207934
6 gpio_analog_en[37] gpio_dm0[37] 0.000136124
7 gpio_analog_pol[37] gpio_dm0[37] 0
8 *208:30 gpio_dm0[37] 0.000157069
9 *237:9 gpio_dm0[37] 3.02628e-05
*RES
1 *874:gpio_dm0[37] gpio_dm0[37] 45.6006 
*END

*D_NET *252 0.0960487
*CONN
*P gpio_dm0[38] O
*I *874:gpio_dm0[38] O *D counter_gpio_config_example
*CAP
1 gpio_dm0[38] 0.00166579
2 *874:gpio_dm0[38] 0.00641488
3 *252:50 0.00621682
4 *252:48 0.00584007
5 *252:44 0.0159262
6 *252:40 0.0210521
7 gpio_dm0[38] *560:19 0
8 *252:40 *295:24 0.000185115
9 *252:40 *558:18 0.000379858
10 *252:44 gpio_ib_mode_sel[38] 0.000425318
11 *252:44 *692:13 0.000190181
12 *252:48 *434:13 0.00300019
13 *252:50 *560:19 0.00614128
14 gpio_analog_en[38] gpio_dm0[38] 0
15 gpio_analog_pol[38] gpio_dm0[38] 0.000236399
16 *120:10 *252:40 0.000132897
17 *120:10 *252:44 0
18 *208:30 *252:40 0.004777
19 *208:38 *252:40 1.29149e-05
20 *208:38 *252:44 0.0234517
*RES
1 *874:gpio_dm0[38] *252:40 20.4171 
2 *252:40 *252:44 49.8544 
3 *252:44 *252:48 5.05367 
4 *252:48 *252:50 106.575 
5 *252:50 gpio_dm0[38] 29.8425 
*END

*D_NET *253 0.162503
*CONN
*P gpio_dm0[39] O
*I *874:gpio_dm0[39] O *D counter_gpio_config_example
*CAP
1 gpio_dm0[39] 8.52172e-05
2 *874:gpio_dm0[39] 0.00971296
3 *253:25 0.00370296
4 *253:23 0.00571444
5 *253:19 0.013033
6 *253:13 0.0488805
7 *253:11 0.0476572
8 *253:11 *294:11 0.00027286
9 *253:11 *398:11 0
10 *253:11 *430:19 0
11 *253:11 *540:11 0
12 *253:13 *540:13 0.00574767
13 *253:19 *258:17 0
14 *253:19 *390:17 0.0270279
15 gpio_analog_en[39] *253:25 0
16 gpio_analog_pol[39] *253:25 0
17 *243:15 *253:11 0.000668124
*RES
1 *874:gpio_dm0[39] *253:11 22.2259 
2 *253:11 *253:13 677.385 
3 *253:13 *253:19 41.7081 
4 *253:19 *253:23 37.35 
5 *253:23 *253:25 62.1 
6 *253:25 gpio_dm0[39] 1.5675 
*END

*D_NET *254 0.363313
*CONN
*P gpio_dm0[3] O
*I *874:gpio_dm0[3] O *D counter_gpio_config_example
*CAP
1 gpio_dm0[3] 0.00137648
2 *874:gpio_dm0[3] 0.0117628
3 *254:17 0.0794307
4 *254:15 0.089817
5 gpio_dm0[3] *342:25 0
6 gpio_dm0[3] *833:13 0
7 *254:15 *319:11 4.71514e-05
8 *254:15 *364:9 0
9 *254:15 *474:7 0.00318597
10 *254:17 *298:22 0
11 *104:11 *254:15 0.00035063
12 *122:195 gpio_dm0[3] 0.000566434
13 *122:195 *254:17 0.175483
14 *166:17 gpio_dm0[3] 0
15 *182:13 *254:15 0.000242485
16 *227:11 *254:17 0.001051
*RES
1 *874:gpio_dm0[3] *254:15 31.2718 
2 *254:15 *254:17 271.007 
3 *254:17 gpio_dm0[3] 6.04757 
*END

*D_NET *255 0.151814
*CONN
*P gpio_dm0[40] O
*I *874:gpio_dm0[40] O *D counter_gpio_config_example
*CAP
1 gpio_dm0[40] 0.000116205
2 *874:gpio_dm0[40] 0.00014779
3 *255:17 0.00357112
4 *255:15 0.0035177
5 *255:13 0.0294955
6 *255:11 0.0294327
7 *255:9 0.0417875
8 *255:7 0.0419353
9 *255:7 *561:11 4.31932e-05
10 *255:9 *561:11 0.000479353
11 gpio_analog_en[40] *255:17 0.000107347
12 *97:11 *255:7 3.80212e-05
13 *97:11 *255:9 0.00114222
14 *167:13 *255:13 0
15 *167:13 *255:17 0
16 *243:17 *255:9 0
*RES
1 *874:gpio_dm0[40] *255:7 0.449667 
2 *255:7 *255:9 96.9063 
3 *255:9 *255:11 0.5 
4 *255:11 *255:13 527.82 
5 *255:13 *255:15 1.14 
6 *255:15 *255:17 62.1 
7 *255:17 gpio_dm0[40] 2.1375 
*END

*D_NET *256 0.163894
*CONN
*P gpio_dm0[41] O
*I *874:gpio_dm0[41] O *D counter_gpio_config_example
*CAP
1 gpio_dm0[41] 0.00051353
2 *874:gpio_dm0[41] 0.000135444
3 *256:13 0.0250479
4 *256:11 0.0245344
5 *256:9 0.0547533
6 *256:7 0.0548888
7 gpio_dm0[41] *478:9 6.49089e-05
8 gpio_dm0[41] *828:13 0.000369446
9 *256:7 *339:33 4.7387e-05
10 *256:9 *262:9 0
11 *256:9 *339:33 5.16043e-05
12 *256:9 *405:9 0
13 gpio_analog_en[41] gpio_dm0[41] 0
14 gpio_analog_en[41] *256:13 0.00343824
15 gpio_analog_pol[41] gpio_dm0[41] 0
16 *160:15 *256:7 4.8733e-05
*RES
1 *874:gpio_dm0[41] *256:7 0.449667 
2 *256:7 *256:9 131.4 
3 *256:9 *256:11 0.5 
4 *256:11 *256:13 455.025 
5 *256:13 gpio_dm0[41] 7.7349 
*END

*D_NET *257 0.254094
*CONN
*P gpio_dm0[42] O
*I *874:gpio_dm0[42] O *D counter_gpio_config_example
*CAP
1 gpio_dm0[42] 0.0085206
2 *874:gpio_dm0[42] 0.000179091
3 *257:13 0.0529772
4 *257:11 0.0444566
5 *257:9 0.0563308
6 *257:7 0.0565099
7 gpio_dm0[42] gpio_dm2[42] 0.0195457
8 gpio_dm0[42] *433:22 0.00473208
9 gpio_dm0[42] *478:9 0.00394084
10 gpio_dm0[42] *828:13 0.00280591
11 *257:7 *390:11 3.25733e-05
12 *257:7 *541:11 3.68451e-05
13 *257:9 *356:9 0
14 *257:9 *390:11 0.00169421
15 *257:9 *541:11 0.00216483
16 *257:13 *564:14 0
17 *169:25 gpio_dm0[42] 0.000167024
*RES
1 *874:gpio_dm0[42] *257:7 0.449667 
2 *257:7 *257:9 132.274 
3 *257:9 *257:11 0.5 
4 *257:11 *257:13 799.275 
5 *257:13 gpio_dm0[42] 40.6076 
*END

*D_NET *258 0.313755
*CONN
*P gpio_dm0[43] O
*I *874:gpio_dm0[43] O *D counter_gpio_config_example
*CAP
1 gpio_dm0[43] 0.00097568
2 *874:gpio_dm0[43] 0.00637561
3 *258:21 0.00509037
4 *258:19 0.00411469
5 *258:17 0.0704579
6 *258:15 0.0704579
7 *258:13 0.0402118
8 *258:11 0.0465874
9 *258:11 *351:7 3.19771e-05
10 *258:11 *351:9 0.00155982
11 *258:11 *408:11 0.00101112
12 *258:13 *401:13 0.000835534
13 *258:13 *430:17 0.00522173
14 *258:17 *390:17 0
15 *258:17 *473:11 0.0287351
16 *258:17 *741:9 0
17 *98:13 *258:13 0.0195215
18 *126:21 gpio_dm0[43] 0
19 *126:21 *258:21 0.00403518
20 *145:11 *258:11 0
21 *170:21 gpio_dm0[43] 0
22 *177:13 *258:13 0.00853154
23 *253:19 *258:17 0
*RES
1 *874:gpio_dm0[43] *258:11 16.1661 
2 *258:11 *258:13 797.745 
3 *258:13 *258:15 0.5 
4 *258:15 *258:17 185.734 
5 *258:17 *258:19 0.5 
6 *258:19 *258:21 87.9525 
7 *258:21 gpio_dm0[43] 20.83 
*END

*D_NET *259 0.453147
*CONN
*P gpio_dm0[4] O
*I *874:gpio_dm0[4] O *D counter_gpio_config_example
*CAP
1 gpio_dm0[4] 0.00119585
2 *874:gpio_dm0[4] 0.0143204
3 *259:40 0
4 *259:29 0.0892901
5 *259:27 0.088743
6 *259:17 0.0115966
7 *259:15 0.0252683
8 gpio_dm0[4] *833:13 0
9 *259:15 *332:7 0.000739135
10 *259:15 *369:7 0.000400535
11 *259:15 *418:7 0
12 *259:15 *550:7 1.91769e-05
13 *259:17 *295:24 0.000704955
14 *259:17 *329:9 0.000130496
15 *259:17 *421:9 0.00781889
16 *259:17 *565:9 0.00834537
17 *259:27 *734:11 0.00179818
18 *259:27 *735:11 0.00181566
19 *259:29 *278:25 0.00683718
20 *259:29 *282:17 0.005572
21 *259:29 *562:9 0.00386633
22 *259:29 *661:17 0.00461
23 *259:29 *694:9 0.0029789
24 *259:29 *716:19 0.00468242
25 *259:29 *733:11 0.00242523
26 *259:29 *735:11 0.000296581
27 *259:29 *787:11 0.000808238
28 *259:29 *793:11 0.000704249
29 *259:29 *804:9 0.119042
30 gpio_analog_en[4] gpio_dm0[4] 0.00133769
31 gpio_analog_pol[4] gpio_dm0[4] 0.00163751
32 *99:9 *259:27 1.92979e-05
33 *101:9 *259:17 0.000270098
34 *198:7 *259:15 1.45731e-05
35 *215:9 *259:17 0.0218503
36 *217:9 *259:17 0.0236596
37 *238:17 *259:29 0.000348555
*RES
1 *874:gpio_dm0[4] *259:15 31.1881 
2 *259:15 *259:17 441.765 
3 *259:17 *259:27 6.12557 
4 *259:27 *259:29 2235.36 
5 *259:29 gpio_dm0[4] 16.0531 
6 gpio_dm0[4] *259:40 0.0616216 
*END

*D_NET *260 0.523831
*CONN
*P gpio_dm0[5] O
*I *874:gpio_dm0[5] O *D counter_gpio_config_example
*CAP
1 gpio_dm0[5] 0.00128687
2 *874:gpio_dm0[5] 0.00307538
3 *260:13 0.12355
4 *260:11 0.122263
5 *260:9 0.0121906
6 *260:7 0.0152659
7 gpio_dm0[5] *833:13 0
8 *260:7 *336:7 0.000695786
9 *260:7 *384:7 0.000138627
10 *260:9 *689:13 0.00657072
11 *260:9 *691:13 0.00752099
12 *260:13 *281:19 0
13 *260:13 *304:13 0
14 gpio_analog_en[5] gpio_dm0[5] 0.000396456
15 gpio_analog_en[5] *260:13 0.000854352
16 *128:21 *260:13 0.190815
17 *172:17 gpio_dm0[5] 0.000396456
18 *173:9 *260:9 0.0388104
19 *219:7 *260:7 0
*RES
1 *874:gpio_dm0[5] *260:7 7.01573 
2 *260:7 *260:9 448.905 
3 *260:9 *260:11 0.5 
4 *260:11 *260:13 379.587 
5 *260:13 gpio_dm0[5] 7.0473 
*END

*D_NET *261 0.315662
*CONN
*P gpio_dm0[6] O
*I *874:gpio_dm0[6] O *D counter_gpio_config_example
*CAP
1 gpio_dm0[6] 0.00390069
2 *874:gpio_dm0[6] 0.000174742
3 *261:13 0.0233703
4 *261:11 0.0194696
5 *261:9 0.117294
6 *261:7 0.117469
7 *261:7 *539:7 3.96238e-05
8 *261:9 *539:7 3.48706e-06
9 *261:9 *539:9 0.00751381
10 *261:13 *331:15 0.0020328
11 *261:13 *570:14 0.00126293
12 *92:13 *261:13 0.0184915
13 *129:13 gpio_dm0[6] 0.00414453
14 *148:11 *261:7 4.31109e-05
15 *148:11 *261:9 0.000452113
16 *173:13 gpio_dm0[6] 0
*RES
1 *874:gpio_dm0[6] *261:7 0.449667 
2 *261:7 *261:9 289.74 
3 *261:9 *261:11 0.5 
4 *261:11 *261:13 67.7388 
5 *261:13 gpio_dm0[6] 10.9152 
*END

*D_NET *262 0.475099
*CONN
*P gpio_dm0[7] O
*I *874:gpio_dm0[7] O *D counter_gpio_config_example
*CAP
1 gpio_dm0[7] 0.00291716
2 *874:gpio_dm0[7] 0.000135537
3 *262:13 0.10792
4 *262:11 0.105003
5 *262:9 0.120105
6 *262:7 0.120241
7 gpio_dm0[7] gpio_inp_dis[7] 0.00342369
8 *262:7 *339:33 5.53887e-05
9 *262:7 *403:7 3.80212e-05
10 *262:9 *339:33 4.00083e-05
11 *262:9 *403:7 6.11296e-06
12 *262:9 *403:9 0.00752984
13 gpio_analog_en[7] gpio_dm0[7] 0
14 gpio_analog_pol[7] gpio_dm0[7] 0.00164223
15 *131:13 *262:13 0
16 *174:13 gpio_dm0[7] 0.00604272
17 *256:9 *262:9 0
*RES
1 *874:gpio_dm0[7] *262:7 0.449667 
2 *262:7 *262:9 287.759 
3 *262:9 *262:11 0.5 
4 *262:11 *262:13 245.949 
5 *262:13 gpio_dm0[7] 12.4314 
*END

*D_NET *263 0.559418
*CONN
*P gpio_dm0[8] O
*I *874:gpio_dm0[8] O *D counter_gpio_config_example
*CAP
1 gpio_dm0[8] 0.00151835
2 *874:gpio_dm0[8] 0.00463129
3 *263:17 0.12217
4 *263:15 0.120652
5 *263:13 0.11715
6 *263:11 0.121781
7 gpio_dm0[8] *571:26 4.09101e-05
8 *263:11 *419:15 0.00073979
9 *263:13 *310:13 0
10 *263:13 *441:11 0.0119963
11 *263:17 *307:21 0
12 *263:17 *571:26 0
13 gpio_analog_en[8] gpio_dm0[8] 0.000651486
14 gpio_analog_en[8] *263:17 0.00444133
15 gpio_analog_pol[8] gpio_dm0[8] 0
16 *97:13 *263:13 0.04647
17 *124:13 *263:13 0.00717625
*RES
1 *874:gpio_dm0[8] *263:11 11.7087 
2 *263:11 *263:13 281.952 
3 *263:13 *263:15 0.5 
4 *263:15 *263:17 285.923 
5 *263:17 gpio_dm0[8] 6.94263 
*END

*D_NET *264 0.764465
*CONN
*P gpio_dm0[9] O
*I *874:gpio_dm0[9] O *D counter_gpio_config_example
*CAP
1 gpio_dm0[9] 0.000923383
2 *874:gpio_dm0[9] 0.000551977
3 *264:13 0.103944
4 *264:11 0.103021
5 *264:9 0.0523883
6 *264:7 0.0529403
7 *264:7 *554:7 0.000113194
8 *264:9 *384:9 0.0134215
9 *264:13 *308:17 0
10 gpio_analog_pol[9] gpio_dm0[9] 0.000399076
11 *132:13 gpio_dm0[9] 0.00164223
12 *132:13 *264:13 0.246981
13 *135:9 *264:7 7.71976e-05
14 *201:7 *264:7 0
15 *223:9 *264:9 0.000775516
16 *224:9 *264:9 0.142567
17 *228:9 *264:9 0.0447193
*RES
1 *874:gpio_dm0[9] *264:7 1.71347 
2 *264:7 *264:9 1778.98 
3 *264:9 *264:11 0.5 
4 *264:11 *264:13 374.285 
5 *264:13 gpio_dm0[9] 4.96677 
*END

*D_NET *265 0.35459
*CONN
*P gpio_dm1[0] O
*I *874:gpio_dm1[0] O *D counter_gpio_config_example
*CAP
1 gpio_dm1[0] 0.0116796
2 *874:gpio_dm1[0] 0.00012836
3 *265:13 0.05722
4 *265:11 0.0455404
5 *265:9 0.11993
6 *265:7 0.120058
7 *265:7 *346:15 2.66249e-05
8 *265:9 *346:15 2.54141e-06
9 *265:9 *567:31 0
10 gpio_analog_en[0] gpio_dm1[0] 3.86648e-06
11 *176:11 *265:7 0
12 *176:11 *265:9 0
13 *221:17 gpio_dm1[0] 0
*RES
1 *874:gpio_dm1[0] *265:7 0.333133 
2 *265:7 *265:9 274.824 
3 *265:9 *265:11 0.5 
4 *265:11 *265:13 114.595 
5 *265:13 gpio_dm1[0] 26.0911 
*END

*D_NET *266 0.687616
*CONN
*P gpio_dm1[10] O
*I *874:gpio_dm1[10] O *D counter_gpio_config_example
*CAP
1 gpio_dm1[10] 0.00299339
2 *874:gpio_dm1[10] 0.00884827
3 *266:21 0.16155
4 *266:19 0.158556
5 *266:17 0.0543645
6 *266:15 0.0632127
7 *266:15 *288:7 0
8 *266:15 *300:7 7.53108e-05
9 *266:15 *391:9 0.0141133
10 *266:15 *434:9 0.000531604
11 *266:15 *532:17 0
12 *266:17 *324:17 0
13 *266:21 *750:17 0
14 *90:17 *266:21 0
15 *129:9 *266:17 0.0118739
16 *132:7 *266:15 5.56205e-06
17 *132:9 *266:17 0.0189559
18 *135:11 *266:17 0.158747
19 *139:9 *266:17 0.00314308
20 *141:9 *266:17 0.0305868
21 *242:7 *266:15 5.83965e-05
*RES
1 *874:gpio_dm1[10] *266:15 29.9493 
2 *266:15 *266:17 1793.78 
3 *266:17 *266:19 0.5 
4 *266:19 *266:21 370.76 
5 *266:21 gpio_dm1[10] 5.97423 
*END

*D_NET *267 0.486397
*CONN
*P gpio_dm1[11] O
*I *874:gpio_dm1[11] O *D counter_gpio_config_example
*CAP
1 gpio_dm1[11] 0.000131565
2 *874:gpio_dm1[11] 0.0146946
3 *267:17 0.109795
4 *267:15 0.109664
5 *267:13 0.116585
6 *267:11 0.13128
7 *267:11 *313:7 3.54641e-05
8 *267:11 *313:9 0.00394152
9 *91:21 *267:17 0
10 *112:11 *267:11 0.000269887
11 *211:11 *267:11 0
*RES
1 *874:gpio_dm1[11] *267:11 36.9965 
2 *267:11 *267:13 295.734 
3 *267:13 *267:15 0.5 
4 *267:15 *267:17 263.558 
5 *267:17 gpio_dm1[11] 0.3781 
*END

*D_NET *268 0.755278
*CONN
*P gpio_dm1[12] O
*I *874:gpio_dm1[12] O *D counter_gpio_config_example
*CAP
1 gpio_dm1[12] 4.14972e-05
2 *874:gpio_dm1[12] 0.00841021
3 *268:21 0.167115
4 *268:19 0.167073
5 *268:17 0.0890836
6 *268:15 0.0974938
7 *268:15 *284:9 0.00873263
8 *268:15 *406:7 0.000351864
9 *268:17 *374:9 0.0201589
10 gpio_analog_en[12] *268:21 0.00317776
11 *107:9 *268:17 0.00621564
12 *119:7 *268:15 0.00114022
13 *162:9 *268:17 0.0053605
14 *178:15 *268:15 3.75923e-05
15 *178:17 *268:17 0.16997
16 *193:9 *268:17 0
17 *196:9 *268:15 0
18 *241:19 *268:17 0.0109159
*RES
1 *874:gpio_dm1[12] *268:15 27.9531 
2 *268:15 *268:17 2324.18 
3 *268:17 *268:19 0.5 
4 *268:19 *268:21 384.549 
5 *268:21 gpio_dm1[12] 0.109567 
*END

*D_NET *269 0.570409
*CONN
*P gpio_dm1[13] O
*I *874:gpio_dm1[13] O *D counter_gpio_config_example
*CAP
1 gpio_dm1[13] 0.000214427
2 *874:gpio_dm1[13] 0.0182583
3 *269:17 0.108217
4 *269:15 0.108003
5 *269:13 0.158541
6 *269:11 0.176799
7 *269:11 *297:7 0
8 *269:11 *297:9 0
9 *269:11 *364:9 0
10 *269:13 *308:13 0
11 *269:17 gpio_slow_sel[13] 0
12 *93:21 *269:17 0
13 *166:15 *269:13 0
14 *238:11 *269:11 0.000376933
*RES
1 *874:gpio_dm1[13] *269:11 41.4247 
2 *269:11 *269:13 401.592 
3 *269:13 *269:15 0.5 
4 *269:15 *269:17 259.13 
5 *269:17 gpio_dm1[13] 0.616233 
*END

*D_NET *270 0.645903
*CONN
*P gpio_dm1[14] O
*I *874:gpio_dm1[14] O *D counter_gpio_config_example
*CAP
1 gpio_dm1[14] 0.000120987
2 *874:gpio_dm1[14] 0.019765
3 *270:17 0.105862
4 *270:15 0.105741
5 *270:13 0.19706
6 *270:11 0.216825
7 *270:11 *335:11 0
8 *270:17 *754:25 0
9 *270:17 *759:9 0
10 *94:17 *270:17 0
11 *149:11 *270:11 0.000487359
12 *165:9 *270:11 0
13 *200:11 *270:11 4.10918e-05
*RES
1 *874:gpio_dm1[14] *270:11 45.7365 
2 *270:11 *270:13 498.405 
3 *270:13 *270:15 0.5 
4 *270:15 *270:17 254.818 
5 *270:17 gpio_dm1[14] 0.3477 
*END

*D_NET *271 0.743808
*CONN
*P gpio_dm1[15] O
*I *874:gpio_dm1[15] O *D counter_gpio_config_example
*CAP
1 gpio_dm1[15] 7.20231e-05
2 *874:gpio_dm1[15] 0.000654486
3 *271:25 0.150957
4 *271:23 0.150885
5 *271:21 0.103936
6 *271:19 0.107489
7 *271:9 0.0133445
8 *271:7 0.0104458
9 *271:7 *309:7 8.46642e-05
10 *271:7 *532:17 0.000174776
11 *271:9 *360:9 0.0335194
12 *271:9 *663:9 0
13 *271:19 *323:15 0.000236028
14 *271:19 *544:17 0.0140372
15 *271:19 *668:5 0
16 *271:19 *704:5 6.73395e-05
17 *271:21 *323:15 0.000144742
18 *271:21 *743:17 0.0656392
19 *271:21 *781:15 0.000110525
20 *103:27 *271:21 0.000160538
21 *104:27 *271:19 0.00207267
22 *147:23 *271:19 0.0154159
23 *229:9 *271:9 0.000621515
24 *233:9 *271:9 0.0235134
25 *233:19 *271:19 0.000726104
26 *233:21 *271:21 0.0495009
*RES
1 *874:gpio_dm1[15] *271:7 1.94653 
2 *271:7 *271:9 400.965 
3 *271:9 *271:19 29.3164 
4 *271:19 *271:21 1947.97 
5 *271:21 *271:23 2 
6 *271:23 *271:25 2632.09 
7 *271:25 gpio_dm1[15] 1.35 
*END

*D_NET *272 0.922115
*CONN
*P gpio_dm1[16] O
*I *874:gpio_dm1[16] O *D counter_gpio_config_example
*CAP
1 gpio_dm1[16] 0.000863556
2 *874:gpio_dm1[16] 0.00392361
3 *272:21 0.0267575
4 *272:19 0.0270289
5 *272:9 0.138669
6 *272:7 0.141457
7 *272:7 *393:7 0.00127649
8 *272:9 gpio_slow_sel[33] 0.000780732
9 *272:9 *288:9 0.00196631
10 *272:9 *382:9 0
11 *272:9 *396:17 0.000255788
12 *272:9 *469:11 0
13 *272:19 *279:15 0.00314764
14 *272:21 gpio_dm2[19] 0.000534019
15 *272:21 *274:13 0.00719306
16 *272:21 *366:13 0.000128225
17 *95:9 *272:19 0
18 *96:13 *272:21 0
19 *102:9 *272:19 0
20 *161:7 *272:7 0.00127273
21 *183:19 *272:19 0.000625443
22 *183:21 *272:21 0.188389
23 *184:19 *272:19 0.00142999
24 *184:21 *272:21 0.185849
25 *189:13 *272:21 0.0147044
26 *201:9 *272:9 0.0168279
27 *220:17 *272:9 0.159034
*RES
1 *874:gpio_dm1[16] *272:7 11.1527 
2 *272:7 *272:9 3165.68 
3 *272:9 *272:19 11.4216 
4 *272:19 *272:21 1734.07 
5 *272:21 gpio_dm1[16] 16.97 
*END

*D_NET *273 0.492474
*CONN
*P gpio_dm1[17] O
*I *874:gpio_dm1[17] O *D counter_gpio_config_example
*CAP
1 gpio_dm1[17] 0.165131
2 *874:gpio_dm1[17] 0.000106764
3 *273:11 0.165131
4 *273:9 0.0740213
5 *273:7 0.074128
6 *273:7 *357:19 2.92693e-05
7 *273:9 *276:13 0.0131012
8 *273:9 *357:19 0.000787467
9 *273:9 *409:11 0
10 *158:9 *273:7 3.31358e-05
11 *158:9 *273:9 3.837e-06
12 *243:17 *273:9 0
*RES
1 *874:gpio_dm1[17] *273:7 0.333133 
2 *273:7 *273:9 178.538 
3 *273:9 *273:11 0.5 
4 *273:11 gpio_dm1[17] 2995.28 
*END

*D_NET *274 0.879955
*CONN
*P gpio_dm1[18] O
*I *874:gpio_dm1[18] O *D counter_gpio_config_example
*CAP
1 gpio_dm1[18] 0.000949361
2 *874:gpio_dm1[18] 0.00189604
3 *274:13 0.0438672
4 *274:11 0.0429178
5 *274:9 0.116699
6 *274:7 0.118595
7 gpio_dm1[18] *450:13 0
8 *274:7 *547:7 0.000673563
9 *274:9 *283:17 0.0298812
10 *274:9 *325:9 0.00961819
11 *274:9 *470:11 0
12 *274:9 *471:11 0
13 *274:13 gpio_dm1[19] 0
14 *274:13 gpio_dm2[18] 0
15 *274:13 gpio_dm2[19] 0.00514614
16 *274:13 *361:13 0.131829
17 *274:13 *365:13 0.0660768
18 gpio_analog_en[35] *274:9 0.000707939
19 *95:9 *274:9 1.88185e-05
20 *96:9 *274:9 0.286215
21 *101:17 *274:13 0.00122001
22 *150:7 *274:7 0.000673563
23 *154:9 *274:9 0
24 *154:17 *274:9 0.00166452
25 *184:19 *274:9 0.000178095
26 *184:21 *274:13 0.00719306
27 *197:9 *274:9 0.000134611
28 *249:9 *274:9 0.00660654
29 *272:21 *274:13 0.00719306
*RES
1 *874:gpio_dm1[18] *274:7 5.90867 
2 *274:7 *274:9 3310 
3 *274:9 *274:11 0.5 
4 *274:11 *274:13 203.563 
5 *274:13 gpio_dm1[18] 17.3825 
*END

*D_NET *275 0.388047
*CONN
*P gpio_dm1[19] O
*I *874:gpio_dm1[19] O *D counter_gpio_config_example
*CAP
1 gpio_dm1[19] 0.0039195
2 *874:gpio_dm1[19] 0.000134897
3 *275:13 0.172321
4 *275:11 0.168402
5 *275:9 0.0180115
6 *275:7 0.0181464
7 gpio_dm1[19] gpio_dm2[19] 0
8 gpio_dm1[19] gpio_out[19] 0
9 *275:7 *348:7 4.53772e-05
10 *275:7 *348:9 6.8512e-06
11 *275:7 *378:15 4.53772e-05
12 *275:9 *348:9 0.00690648
13 *275:9 *378:15 0.000107915
14 *275:9 *555:11 0
15 *274:13 gpio_dm1[19] 0
*RES
1 *874:gpio_dm1[19] *275:7 0.449667 
2 *275:7 *275:9 50.1182 
3 *275:9 *275:11 0.5 
4 *275:11 *275:13 3049.4 
5 *275:13 gpio_dm1[19] 20.7886 
*END

*D_NET *276 0.431591
*CONN
*P gpio_dm1[1] O
*I *874:gpio_dm1[1] O *D counter_gpio_config_example
*CAP
1 gpio_dm1[1] 0.00157926
2 *874:gpio_dm1[1] 0.184421
3 *276:21 0.0201634
4 *276:13 0.203005
5 *276:13 *409:11 0.00137441
6 gpio_analog_en[1] gpio_dm1[1] 0
7 gpio_analog_en[1] *276:21 0.00523424
8 gpio_analog_pol[1] *276:21 0
9 gpio_dm0[1] gpio_dm1[1] 0.000314334
10 gpio_dm0[37] *276:13 0.00238431
11 *137:17 *276:21 0
12 *155:25 gpio_dm1[1] 0
13 *232:18 gpio_dm1[1] 1.44699e-05
14 *273:9 *276:13 0.0131012
*RES
1 *874:gpio_dm1[1] *276:13 37.6836 
2 *276:13 *276:21 47.9465 
3 *276:21 gpio_dm1[1] 7.02817 
*END

*D_NET *277 0.363029
*CONN
*P gpio_dm1[20] O
*I *874:gpio_dm1[20] O *D counter_gpio_config_example
*CAP
1 gpio_dm1[20] 7.849e-05
2 *874:gpio_dm1[20] 0.00899591
3 *277:13 0.12372
4 *277:11 0.132638
5 *277:11 *386:7 3.80212e-05
6 *277:11 *386:9 0.00273061
7 *277:13 *445:11 0.0920592
8 *181:7 *277:11 4.31932e-05
9 *181:9 *277:11 0.00272544
*RES
1 *874:gpio_dm1[20] *277:11 25.8967 
2 *277:11 *277:13 2945.86 
3 *277:13 gpio_dm1[20] 1.35 
*END

*D_NET *278 0.399755
*CONN
*P gpio_dm1[21] O
*I *874:gpio_dm1[21] O *D counter_gpio_config_example
*CAP
1 gpio_dm1[21] 7.849e-05
2 *874:gpio_dm1[21] 0.00116409
3 *278:29 0.152148
4 *278:27 0.15207
5 *278:25 0.0010872
6 *278:23 0.00191272
7 *278:13 0.0176333
8 *278:11 0.0179719
9 *278:11 *303:7 4.18431e-05
10 *278:11 *303:9 0.000228935
11 *278:11 *310:11 0
12 *278:11 *672:17 0.000316242
13 *278:13 *474:11 0
14 *278:13 *672:13 0
15 *278:13 *705:41 0
16 *278:23 *367:17 5.07624e-05
17 *278:23 *661:23 0.00256341
18 *278:23 *705:41 0.00248195
19 *278:25 *787:11 0.000977167
20 *278:25 *804:9 0.00683603
21 *104:13 *278:13 0.0153251
22 *106:13 *278:23 0
23 *108:13 *278:13 0.014545
24 *112:13 *278:13 0.0054634
25 *137:11 *278:11 2.29848e-05
26 *259:29 *278:25 0.00683718
*RES
1 *874:gpio_dm1[21] *278:11 3.58053 
2 *278:11 *278:13 453.622 
3 *278:13 *278:23 39.135 
4 *278:23 *278:25 62.895 
5 *278:25 *278:27 2 
6 *278:27 *278:29 2645.09 
7 *278:29 gpio_dm1[21] 1.35 
*END

*D_NET *279 0.509053
*CONN
*P gpio_dm1[22] O
*I *874:gpio_dm1[22] O *D counter_gpio_config_example
*CAP
1 gpio_dm1[22] 0.00106128
2 *874:gpio_dm1[22] 0.00535158
3 *279:15 0.014391
4 *279:9 0.161358
5 *279:7 0.15338
6 *279:7 *325:7 0.000604001
7 *279:9 *395:9 0.137918
8 *279:9 *735:13 0
9 *279:9 *823:10 0
10 *279:15 *361:13 0.0312199
11 *279:15 *676:9 0
12 *91:7 *279:7 0.000464396
13 *163:7 *279:7 0
14 *184:19 *279:15 0.000157872
15 *272:19 *279:15 0.00314764
*RES
1 *874:gpio_dm1[22] *279:7 12.9007 
2 *279:7 *279:9 3263.08 
3 *279:9 *279:15 49.2828 
4 *279:15 gpio_dm1[22] 17.9025 
*END

*D_NET *280 0.571369
*CONN
*P gpio_dm1[23] O
*I *874:gpio_dm1[23] O *D counter_gpio_config_example
*CAP
1 gpio_dm1[23] 0.00404772
2 *874:gpio_dm1[23] 0.00647606
3 *280:9 0.122158
4 *280:7 0.124587
5 *280:9 *289:9 0.00181168
6 *280:9 *366:9 0.262192
7 *280:9 *373:17 0.0204775
8 gpio_analog_en[23] gpio_dm1[23] 0
9 gpio_analog_sel[22] gpio_dm1[23] 0.00884671
10 *96:7 *280:7 0.000555178
11 *99:13 gpio_dm1[23] 0.00265581
12 *157:9 *280:9 0.000835148
13 *161:9 *280:9 0.00803446
14 *163:11 *280:9 0.00120774
15 *206:11 *280:9 0.00520692
16 *228:7 *280:7 0.000132282
17 *248:9 *280:9 0.00214509
*RES
1 *874:gpio_dm1[23] *280:7 14.6487 
2 *280:7 *280:9 3245.75 
3 *280:9 gpio_dm1[23] 21.5174 
*END

*D_NET *281 0.604342
*CONN
*P gpio_dm1[24] O
*I *874:gpio_dm1[24] O *D counter_gpio_config_example
*CAP
1 gpio_dm1[24] 2.44619e-05
2 *874:gpio_dm1[24] 0.00190381
3 *281:25 0.0341185
4 *281:23 0.034094
5 *281:21 0.122348
6 *281:19 0.122382
7 *281:13 0.0354024
8 *281:11 0.0372724
9 *281:11 *298:16 0.000650979
10 *281:11 *419:15 0.000884157
11 *281:13 *357:19 0.00029583
12 *281:13 *376:13 0.000542219
13 *281:13 *419:15 0.000449202
14 *281:13 *444:11 0
15 *281:13 *683:13 0
16 *281:13 *749:25 0
17 *281:13 *826:18 0
18 *281:19 *797:9 5.2007e-06
19 *281:21 *326:21 0
20 *281:21 *423:13 0.000967341
21 *281:25 gpio_slow_sel[24] 0
22 *281:25 *402:13 0.000692747
23 *281:25 *666:21 0.0561883
24 *131:7 *281:11 5.53887e-05
25 *131:9 *281:11 0.000826305
26 *153:13 *281:21 0
27 *239:13 *281:13 0.00924768
28 *239:21 *281:13 0.00479827
29 *239:21 *281:21 0.141193
30 *260:13 *281:19 0
*RES
1 *874:gpio_dm1[24] *281:11 6.96 
2 *281:11 *281:13 665.145 
3 *281:13 *281:19 1.06713 
4 *281:19 *281:21 401.419 
5 *281:21 *281:23 0.5 
6 *281:23 *281:25 107.521 
7 *281:25 gpio_dm1[24] 0.0703 
*END

*D_NET *282 0.438018
*CONN
*P gpio_dm1[25] O
*I *874:gpio_dm1[25] O *D counter_gpio_config_example
*CAP
1 gpio_dm1[25] 3.28362e-05
2 *874:gpio_dm1[25] 0.00211535
3 *282:33 0.0413956
4 *282:31 0.0413627
5 *282:29 0.0932914
6 *282:27 0.0934453
7 *282:17 0.00114572
8 *282:15 0.000991803
9 *282:13 0.00638659
10 *282:11 0.00850194
11 *282:11 *299:7 4.1227e-05
12 *282:11 *299:9 0.000430919
13 *282:13 *415:13 0.000147915
14 *282:13 *479:11 0
15 *282:17 *694:9 0.000516241
16 *282:17 *716:19 0.000174039
17 *282:27 *425:17 3.99991e-05
18 *282:29 *451:13 0
19 *282:29 *453:17 0.0959327
20 *282:33 *766:9 0
21 *106:25 *282:33 0
22 *121:11 *282:11 0
23 *148:13 *282:13 6.1121e-05
24 *149:13 *282:13 0.0243536
25 *205:13 *282:13 0.0157336
26 *238:17 *282:17 0.00508245
27 *240:19 *282:27 4.32417e-05
28 *246:31 *282:13 0.00104264
29 *246:37 *282:13 0.000177213
30 *259:29 *282:17 0.005572
*RES
1 *874:gpio_dm1[25] *282:11 5.27027 
2 *282:11 *282:13 277.418 
3 *282:13 *282:15 2 
4 *282:15 *282:17 51.51 
5 *282:17 *282:27 4.82963 
6 *282:27 *282:29 320.196 
7 *282:29 *282:31 0.5 
8 *282:31 *282:33 97.1495 
9 *282:33 gpio_dm1[25] 0.0943667 
*END

*D_NET *283 0.525665
*CONN
*P gpio_dm1[26] O
*I *874:gpio_dm1[26] O *D counter_gpio_config_example
*CAP
1 gpio_dm1[26] 0.00940358
2 *874:gpio_dm1[26] 0.00192199
3 *283:17 0.0671682
4 *283:15 0.0580279
5 *283:9 0.0148966
6 *283:7 0.0165554
7 *283:9 *377:9 0.053797
8 *283:9 *402:9 0.0150119
9 *283:9 *779:18 0.000905073
10 *283:15 *380:17 0
11 *283:15 *556:17 0
12 *283:17 *325:9 0.00372764
13 gpio_analog_en[26] gpio_dm1[26] 0.000670168
14 gpio_analog_sel[34] *283:15 0.000242264
15 *91:9 *283:9 0.00218942
16 *91:17 *283:9 0.0127886
17 *95:9 *283:17 0.00644578
18 *96:9 *283:17 0.0150285
19 *105:17 *283:17 0
20 *115:9 *283:9 0.00914072
21 *123:9 *283:9 0.0101473
22 *154:9 *283:9 0.000465446
23 *154:17 *283:17 0.102447
24 *174:9 *283:17 0.0800928
25 *183:7 *283:7 0.000483676
26 *196:7 *283:7 0.000483676
27 *197:9 *283:17 0.0137432
28 *274:9 *283:17 0.0298812
*RES
1 *874:gpio_dm1[26] *283:7 5.26773 
2 *283:7 *283:9 713.085 
3 *283:9 *283:15 1.6498 
4 *283:15 *283:17 275.406 
5 *283:17 gpio_dm1[26] 21.3386 
*END

*D_NET *284 0.434081
*CONN
*P gpio_dm1[27] O
*I *874:gpio_dm1[27] O *D counter_gpio_config_example
*CAP
1 gpio_dm1[27] 0.00763823
2 *874:gpio_dm1[27] 0.00381935
3 *284:9 0.0786604
4 *284:7 0.0748415
5 *284:7 *307:7 0
6 *284:9 *328:9 0
7 *284:9 *374:9 0.00074203
8 *284:9 *822:10 0.00444836
9 gpio_analog_en[27] gpio_dm1[27] 0
10 gpio_dm0[27] gpio_dm1[27] 0
11 *107:9 *284:9 0.177488
12 *162:9 *284:9 0.00417514
13 *163:7 *284:7 0.00116189
14 *178:15 *284:9 0.00764984
15 *193:9 *284:9 0.00346388
16 *193:17 *284:9 0.0612599
17 *196:9 *284:9 0
18 *247:9 *284:9 0
19 *268:15 *284:9 0.00873263
*RES
1 *874:gpio_dm1[27] *284:7 9.84167 
2 *284:7 *284:9 371.273 
3 *284:9 gpio_dm1[27] 17.1484 
*END

*D_NET *285 0.35524
*CONN
*P gpio_dm1[28] O
*I *874:gpio_dm1[28] O *D counter_gpio_config_example
*CAP
1 gpio_dm1[28] 0.00493565
2 *874:gpio_dm1[28] 0.00592754
3 *285:9 0.110909
4 *285:7 0.111901
5 *285:7 *554:7 0.00180421
6 *285:9 *327:9 0
7 *285:9 *413:17 0
8 *285:9 *414:9 0.0365004
9 *285:9 *464:11 0.00341924
10 *109:17 gpio_dm1[28] 0
11 *198:7 *285:7 0.00179923
12 *198:9 *285:9 0
13 *202:9 *285:9 0.0780436
*RES
1 *874:gpio_dm1[28] *285:7 16.0179 
2 *285:7 *285:9 313.563 
3 *285:9 gpio_dm1[28] 10.6682 
*END

*D_NET *286 0.524693
*CONN
*P gpio_dm1[29] O
*I *874:gpio_dm1[29] O *D counter_gpio_config_example
*CAP
1 gpio_dm1[29] 0.00123562
2 *874:gpio_dm1[29] 0.015913
3 *286:25 0.0299087
4 *286:23 0.0286731
5 *286:21 0.0288845
6 *286:19 0.0315044
7 *286:15 0.018533
8 gpio_dm1[29] *462:13 0.000271268
9 *286:15 *357:19 0.00162142
10 *286:15 *376:13 0
11 *286:15 *423:13 0.00522425
12 *286:15 *444:11 0.000919206
13 *286:15 *446:11 0.0025636
14 *286:15 *826:18 0.00110785
15 *286:19 *326:19 4.57523e-06
16 *286:19 *787:11 0.00167601
17 gpio_analog_pol[29] *286:25 0
18 gpio_dm0[29] *286:25 0
19 *110:6 *286:21 0.111771
20 *110:10 gpio_dm1[29] 0.000228148
21 *110:10 *286:25 0.0650192
22 *153:13 *286:15 0.00893462
23 *167:7 *286:15 4.90961e-05
24 *167:9 *286:15 0.000672202
25 *176:13 *286:19 0
26 *182:11 *286:15 0.000603618
27 *205:17 *286:19 0.000257576
28 *236:9 *286:21 0.0532547
29 *237:9 *286:21 0.111768
30 *239:21 *286:15 0.00167276
31 *240:19 *286:19 0.00242129
*RES
1 *874:gpio_dm1[29] *286:15 47.6019 
2 *286:15 *286:19 6.36467 
3 *286:19 *286:21 210.289 
4 *286:21 *286:23 0.5 
5 *286:23 *286:25 99.1787 
6 *286:25 gpio_dm1[29] 6.58497 
*END

*D_NET *287 0.266596
*CONN
*P gpio_dm1[2] O
*I *874:gpio_dm1[2] O *D counter_gpio_config_example
*CAP
1 gpio_dm1[2] 0.000195034
2 *874:gpio_dm1[2] 0.0183306
3 *287:17 0.107929
4 *287:15 0.112127
5 *287:11 0.022724
6 *287:11 *358:7 0
7 *287:11 *358:9 0
8 *287:11 *387:7 4.1647e-05
9 *287:11 *387:9 0.00523057
10 *287:15 *355:13 1.86715e-05
11 *287:17 *771:21 0
12 gpio_analog_en[2] *287:17 0
*RES
1 *874:gpio_dm1[2] *287:11 47.601 
2 *287:11 *287:15 11.3047 
3 *287:15 *287:17 252.953 
4 *287:17 gpio_dm1[2] 0.5605 
*END

*D_NET *288 0.350822
*CONN
*P gpio_dm1[30] O
*I *874:gpio_dm1[30] O *D counter_gpio_config_example
*CAP
1 gpio_dm1[30] 0.00729208
2 *874:gpio_dm1[30] 0.00561369
3 *288:9 0.0660992
4 *288:7 0.0644208
5 gpio_dm1[30] *772:19 0
6 *288:7 *344:17 6.46364e-05
7 *288:7 *532:17 1.77524e-05
8 *288:9 *382:9 0.00316339
9 *288:9 *383:11 0.000222457
10 *288:9 *396:17 0.00393263
11 gpio_analog_en[30] gpio_dm1[30] 0
12 gpio_dm0[30] gpio_dm1[30] 0
13 *150:9 *288:9 0
14 *152:17 *288:9 0.0740333
15 *201:7 *288:7 0
16 *201:9 *288:9 0.122029
17 *220:17 *288:9 0.00196631
18 *266:15 *288:7 0
19 *272:9 *288:9 0.00196631
*RES
1 *874:gpio_dm1[30] *288:7 11.5897 
2 *288:7 *288:9 261.108 
3 *288:9 gpio_dm1[30] 15.4916 
*END

*D_NET *289 0.23914
*CONN
*P gpio_dm1[31] O
*I *874:gpio_dm1[31] O *D counter_gpio_config_example
*CAP
1 gpio_dm1[31] 0.00549357
2 *874:gpio_dm1[31] 0.00679994
3 *289:9 0.0567937
4 *289:7 0.0581001
5 gpio_dm1[31] gpio_slow_sel[31] 0
6 *289:7 *366:7 0.00137223
7 *289:7 *402:7 0
8 *289:7 *431:7 0.000323774
9 *289:9 *336:9 0
10 *289:9 *366:9 0.00362335
11 *289:9 *373:17 0.0070294
12 *289:9 *413:17 0.000285704
13 *113:17 gpio_dm1[31] 0
14 *157:17 *289:9 0.0577232
15 *159:9 *289:9 0
16 *242:9 *289:9 0
17 *248:9 *289:9 0.0397838
18 *280:9 *289:9 0.00181168
*RES
1 *874:gpio_dm1[31] *289:7 15.0857 
2 *289:7 *289:9 212.098 
3 *289:9 gpio_dm1[31] 11.6055 
*END

*D_NET *290 0.239756
*CONN
*P gpio_dm1[32] O
*I *874:gpio_dm1[32] O *D counter_gpio_config_example
*CAP
1 gpio_dm1[32] 0.00048041
2 *874:gpio_dm1[32] 0.000644718
3 *290:21 0.0164398
4 *290:19 0.0159594
5 *290:17 0.0340147
6 *290:15 0.0340147
7 *290:13 0.00597332
8 *290:11 0.00661804
9 *290:11 *318:7 4.34109e-05
10 *290:11 *318:9 0.000134159
11 *290:13 *335:13 0.000557252
12 *290:13 *337:13 0.0129039
13 *290:13 *381:13 0.0201944
14 *290:13 *556:13 0.0011341
15 *290:13 *557:13 0.00111032
16 *290:17 *322:13 0.0429893
17 *290:17 *360:13 0
18 *290:17 *411:15 0
19 *290:17 *543:19 0.00401261
20 *290:17 *553:18 0
21 *290:17 *699:9 0.00542069
22 *290:17 *751:11 0.000218975
23 *290:21 *553:22 0.0367458
24 gpio_analog_en[32] gpio_dm1[32] 0
25 *98:11 *290:11 0.000145612
26 *113:13 *290:13 0
*RES
1 *874:gpio_dm1[32] *290:11 2.12387 
2 *290:11 *290:13 275.505 
3 *290:13 *290:15 0.5 
4 *290:15 *290:17 102.005 
5 *290:17 *290:19 0.5 
6 *290:19 *290:21 424.935 
7 *290:21 gpio_dm1[32] 1.50383 
*END

*D_NET *291 0.206855
*CONN
*P gpio_dm1[33] O
*I *874:gpio_dm1[33] O *D counter_gpio_config_example
*CAP
1 gpio_dm1[33] 0.00563311
2 *874:gpio_dm1[33] 0.00566804
3 *291:9 0.0549978
4 *291:7 0.0550327
5 gpio_dm1[33] gpio_slow_sel[33] 0
6 gpio_dm1[33] *373:15 0.000328937
7 gpio_dm1[33] *467:15 0.000589483
8 *291:7 *328:7 0
9 *291:7 *424:7 0.00146909
10 *291:9 *307:9 0.0283178
11 *291:9 *354:15 0.00218302
12 gpio_analog_en[33] gpio_dm1[33] 0
13 gpio_dm0[33] gpio_dm1[33] 0
14 *129:7 *291:7 4.06815e-05
15 *163:11 *291:9 0
16 *242:9 *291:9 0.0525945
*RES
1 *874:gpio_dm1[33] *291:7 14.1534 
2 *291:7 *291:9 161.021 
3 *291:9 gpio_dm1[33] 12.7962 
*END

*D_NET *292 0.14659
*CONN
*P gpio_dm1[34] O
*I *874:gpio_dm1[34] O *D counter_gpio_config_example
*CAP
1 gpio_dm1[34] 5.04664e-05
2 *874:gpio_dm1[34] 0.000829086
3 *292:17 0.0468255
4 *292:15 0.046775
5 *292:13 0.00725105
6 *292:11 0.00808014
7 *292:11 *540:11 0.000196898
8 *292:13 *294:13 0.000842889
9 *292:13 *380:13 0.00490009
10 *292:13 *557:13 0
11 *292:17 gpio_slow_sel[34] 0
12 *292:17 *748:9 0
13 gpio_analog_en[34] *292:17 0
14 *113:13 *292:13 0.0164912
15 *146:13 *292:13 0.0140981
16 *187:11 *292:11 0.000249767
*RES
1 *874:gpio_dm1[34] *292:11 2.64827 
2 *292:11 *292:13 285.195 
3 *292:13 *292:15 0.5 
4 *292:15 *292:17 103.238 
5 *292:17 gpio_dm1[34] 0.145033 
*END

*D_NET *293 0.218003
*CONN
*P gpio_dm1[35] O
*I *874:gpio_dm1[35] O *D counter_gpio_config_example
*CAP
1 gpio_dm1[35] 0.00212374
2 *874:gpio_dm1[35] 0.000703808
3 *293:17 0.0184889
4 *293:15 0.0163652
5 *293:13 0.00305784
6 *293:11 0.00376165
7 gpio_dm1[35] *427:21 0.00375485
8 *293:11 *368:31 0.000162623
9 *293:13 *381:13 0.0159848
10 *293:13 *556:13 0.00015346
11 *293:13 *557:13 0.0158982
12 *293:17 *337:17 0.0661604
13 *293:17 *338:17 0.06576
14 *293:17 *557:17 7.71957e-05
15 *293:17 *829:16 0.0014001
16 gpio_analog_en[35] gpio_dm1[35] 0
17 *94:11 *293:11 0.000160543
18 *113:13 *293:13 0
19 *117:17 *293:17 0.000194841
20 *205:11 *293:11 0.000145791
21 *215:33 *293:17 0.00364844
*RES
1 *874:gpio_dm1[35] *293:11 2.2404 
2 *293:11 *293:13 182.685 
3 *293:13 *293:15 0.5 
4 *293:15 *293:17 102.005 
5 *293:17 gpio_dm1[35] 45.3189 
*END

*D_NET *294 0.127036
*CONN
*P gpio_dm1[36] O
*I *874:gpio_dm1[36] O *D counter_gpio_config_example
*CAP
1 gpio_dm1[36] 0.0490456
2 *874:gpio_dm1[36] 0.000902844
3 *294:13 0.0510016
4 *294:11 0.00285885
5 gpio_dm1[36] gpio_slow_sel[36] 0.000671373
6 gpio_dm1[36] *319:11 0.0007533
7 gpio_dm1[36] *368:31 2.50034e-05
8 gpio_dm1[36] *416:23 0
9 gpio_dm1[36] *424:35 9.73385e-05
10 gpio_dm1[36] *550:9 0.000136761
11 *294:11 *398:11 2.95379e-05
12 *294:13 *557:13 0
13 gpio_dm0[36] gpio_dm1[36] 0.017704
14 *122:193 gpio_dm1[36] 0.000389468
15 *146:13 *294:13 0.00199471
16 *160:17 gpio_dm1[36] 2.87821e-05
17 *203:11 gpio_dm1[36] 0.000280769
18 *253:11 *294:11 0.00027286
19 *292:13 *294:13 0.000842889
*RES
1 *874:gpio_dm1[36] *294:11 2.59 
2 *294:11 *294:13 49.575 
3 *294:13 gpio_dm1[36] 19.6765 
*END

*D_NET *295 0.124079
*CONN
*P gpio_dm1[37] O
*I *874:gpio_dm1[37] O *D counter_gpio_config_example
*CAP
1 gpio_dm1[37] 0.000728393
2 *874:gpio_dm1[37] 0.0584553
3 *295:24 0.0591837
4 gpio_dm1[37] *726:21 0.00125887
5 *295:24 gpio_vtrip_sel[37] 0
6 *295:24 *339:33 0.00183348
7 *295:24 *395:7 0.000862575
8 *295:24 *571:16 0.000775705
9 gpio_analog_pol[37] *295:24 0
10 *120:10 *295:24 4.06901e-05
11 *208:30 *295:24 5.06133e-05
12 *252:40 *295:24 0.000185115
13 *259:17 *295:24 0.000704955
*RES
1 *874:gpio_dm1[37] *295:24 39.3563 
2 *295:24 gpio_dm1[37] 15.4717 
*END

*D_NET *296 0.164974
*CONN
*P gpio_dm1[38] O
*I *874:gpio_dm1[38] O *D counter_gpio_config_example
*CAP
1 gpio_dm1[38] 0.000213627
2 *874:gpio_dm1[38] 0.00016441
3 *296:13 0.00898891
4 *296:11 0.00877528
5 *296:9 0.00355368
6 *296:7 0.00371809
7 *296:9 *340:9 0.0119388
8 *296:9 *340:13 0.00298237
9 *296:9 *342:19 0.00036281
10 *296:9 *344:19 0.0078975
11 *296:9 *389:9 0.00344348
12 *296:13 gpio_slow_sel[38] 0.0117283
13 *296:13 *300:19 0.0244432
14 *125:19 *296:9 0
15 *125:21 *296:13 0.0198805
16 *164:13 *296:13 0.0447618
17 *168:19 *296:9 0
18 *168:21 *296:13 0.00681738
19 *212:13 *296:13 0.0052283
20 *223:7 *296:7 3.77899e-05
21 *241:7 *296:7 3.77899e-05
*RES
1 *874:gpio_dm1[38] *296:7 0.897733 
2 *296:7 *296:9 194.925 
3 *296:9 *296:11 0.5 
4 *296:11 *296:13 69.0257 
5 *296:13 gpio_dm1[38] 4.2125 
*END

*D_NET *297 0.133156
*CONN
*P gpio_dm1[39] O
*I *874:gpio_dm1[39] O *D counter_gpio_config_example
*CAP
1 gpio_dm1[39] 0.000160241
2 *874:gpio_dm1[39] 0.000191648
3 *297:13 0.0397216
4 *297:11 0.0395613
5 *297:9 0.02659
6 *297:7 0.0267817
7 *297:7 *381:11 3.98266e-05
8 *297:9 *381:11 0.000110083
9 *89:9 *297:9 0
10 *269:11 *297:7 0
11 *269:11 *297:9 0
*RES
1 *874:gpio_dm1[39] *297:7 0.332838 
2 *297:7 *297:9 61.0723 
3 *297:9 *297:11 0.5 
4 *297:11 *297:13 707.115 
5 *297:13 gpio_dm1[39] 2.9475 
*END

*D_NET *298 0.422921
*CONN
*P gpio_dm1[3] O
*I *874:gpio_dm1[3] O *D counter_gpio_config_example
*CAP
1 gpio_dm1[3] 0.000125931
2 *874:gpio_dm1[3] 0.0676504
3 *298:22 0.115168
4 *298:20 0.115043
5 *298:18 0.0219947
6 *298:16 0.0896451
7 *298:16 *375:17 0.0063248
8 *298:16 *419:15 0.000725461
9 *298:16 *540:17 0.00272155
10 *298:16 *664:16 2.87744e-05
11 *298:16 *665:20 0.000508693
12 *298:22 gpio_slow_sel[3] 0
13 *129:9 *298:16 3.58182e-05
14 *131:9 *298:16 0.00164207
15 *232:16 *298:16 0.000656002
16 *254:17 *298:22 0
17 *281:11 *298:16 0.000650979
*RES
1 *874:gpio_dm1[3] *298:16 14.6445 
2 *298:16 *298:18 54.2159 
3 *298:18 *298:20 0.5 
4 *298:20 *298:22 264.257 
5 *298:22 gpio_dm1[3] 0.3325 
*END

*D_NET *299 0.158023
*CONN
*P gpio_dm1[40] O
*I *874:gpio_dm1[40] O *D counter_gpio_config_example
*CAP
1 gpio_dm1[40] 7.86934e-05
2 *874:gpio_dm1[40] 0.00015657
3 *299:13 0.0365875
4 *299:11 0.0365088
5 *299:9 0.0420127
6 *299:7 0.0421692
7 *140:9 *299:9 0
8 *245:7 *299:7 3.60549e-05
9 *245:7 *299:9 1.42636e-06
10 *282:11 *299:7 4.1227e-05
11 *282:11 *299:9 0.000430919
*RES
1 *874:gpio_dm1[40] *299:7 0.449667 
2 *299:7 *299:9 96.0323 
3 *299:9 *299:11 0.5 
4 *299:11 *299:13 653.565 
5 *299:13 gpio_dm1[40] 1.4475 
*END

*D_NET *300 0.378165
*CONN
*P gpio_dm1[41] O
*I *874:gpio_dm1[41] O *D counter_gpio_config_example
*CAP
1 gpio_dm1[41] 0.000197388
2 *874:gpio_dm1[41] 0.000871724
3 *300:21 0.0198572
4 *300:19 0.0237685
5 *300:9 0.0251749
6 *300:7 0.0219379
7 *300:7 *548:7 0.000218776
8 *300:9 *359:9 0.0110159
9 *300:9 *663:9 0.00791587
10 *300:21 *340:17 0.000236591
11 *300:21 *344:35 0.109705
12 *300:21 *433:22 0
13 *300:21 *739:9 0.0142003
14 *300:21 *828:13 0.00406889
15 gpio_analog_en[41] gpio_dm1[41] 0
16 *123:15 *300:19 0.000234872
17 *123:21 *300:21 0.0844079
18 *125:19 *300:19 9.02255e-05
19 *164:13 *300:19 0.000298928
20 *164:13 *300:21 0.00438831
21 *212:13 *300:19 0.0250571
22 *266:15 *300:7 7.53108e-05
23 *296:13 *300:19 0.0244432
*RES
1 *874:gpio_dm1[41] *300:7 2.47093 
2 *300:7 *300:9 458.085 
3 *300:9 *300:19 43.0598 
4 *300:19 *300:21 1009.58 
5 *300:21 gpio_dm1[41] 5.1875 
*END

*D_NET *301 0.379583
*CONN
*P gpio_dm1[42] O
*I *874:gpio_dm1[42] O *D counter_gpio_config_example
*CAP
1 gpio_dm1[42] 0.000196937
2 *874:gpio_dm1[42] 9.55691e-05
3 *301:17 0.00720662
4 *301:15 0.00700968
5 *301:13 0.0701379
6 *301:11 0.0701379
7 *301:9 0.0144021
8 *301:7 0.0144977
9 *301:7 *552:7 3.01764e-05
10 *301:9 *340:9 0.00889931
11 *301:9 *342:19 0.000368884
12 *301:9 *344:17 0.000643648
13 *301:9 *389:9 0.00231521
14 *301:9 *404:11 0.00264886
15 *301:9 *428:11 0
16 *301:9 *560:11 0
17 *301:9 *664:18 0
18 *301:13 *302:13 0
19 *301:13 *697:9 0.137557
20 *129:9 *301:9 0.00150032
21 *132:7 *301:7 2.77577e-05
22 *135:11 *301:9 0.0126149
23 *141:9 *301:9 0.029292
*RES
1 *874:gpio_dm1[42] *301:7 0.7812 
2 *301:7 *301:9 498.885 
3 *301:9 *301:11 0.5 
4 *301:11 *301:13 241.437 
5 *301:13 *301:15 0.5 
6 *301:15 *301:17 121.635 
7 *301:17 gpio_dm1[42] 3.6225 
*END

*D_NET *302 0.424902
*CONN
*P gpio_dm1[43] O
*I *874:gpio_dm1[43] O *D counter_gpio_config_example
*CAP
1 gpio_dm1[43] 0.00011539
2 *874:gpio_dm1[43] 0.000268018
3 *302:17 0.00737466
4 *302:15 0.00725927
5 *302:13 0.0805718
6 *302:11 0.0805718
7 *302:9 0.00749856
8 *302:7 0.00776658
9 *302:7 *440:7 5.78214e-05
10 *302:9 *342:19 0.000243023
11 *302:9 *344:19 0.0284527
12 *302:9 *347:9 0.00107504
13 *302:9 *384:9 0
14 *302:9 *391:9 0.000401495
15 *302:9 *434:9 0.034628
16 *302:9 *532:19 0.00159579
17 *302:13 *434:13 0
18 *302:13 *697:9 0
19 *302:13 *698:9 0.156708
20 *143:9 *302:9 0.0100604
21 *147:9 *302:9 0.000204721
22 *174:7 *302:7 4.90105e-05
23 *225:9 *302:9 0
24 *301:13 *302:13 0
*RES
1 *874:gpio_dm1[43] *302:7 1.07253 
2 *302:7 *302:9 442.785 
3 *302:9 *302:11 0.5 
4 *302:11 *302:13 276.688 
5 *302:13 *302:15 0.5 
6 *302:15 *302:17 126.735 
7 *302:17 gpio_dm1[43] 2.1225 
*END

*D_NET *303 0.435264
*CONN
*P gpio_dm1[4] O
*I *874:gpio_dm1[4] O *D counter_gpio_config_example
*CAP
1 gpio_dm1[4] 0.00706207
2 *874:gpio_dm1[4] 0.00014339
3 *303:13 0.0318793
4 *303:11 0.0248172
5 *303:9 0.0621457
6 *303:7 0.0622891
7 *303:7 *422:11 1.983e-05
8 *303:9 *672:17 0.0477077
9 *303:13 *351:13 0.00146027
10 *303:13 *437:13 0
11 gpio_analog_en[4] gpio_dm1[4] 0
12 gpio_analog_pol[4] gpio_dm1[4] 0
13 *134:13 *303:13 0.000725576
14 *137:13 *303:7 6.51359e-05
15 *137:13 *303:9 0.180732
16 *210:14 *303:13 0.0159467
17 *278:11 *303:7 4.18431e-05
18 *278:11 *303:9 0.000228935
*RES
1 *874:gpio_dm1[4] *303:7 0.449667 
2 *303:7 *303:9 284.496 
3 *303:9 *303:11 0.5 
4 *303:11 *303:13 78.4193 
5 *303:13 gpio_dm1[4] 15.669 
*END

*D_NET *304 0.45675
*CONN
*P gpio_dm1[5] O
*I *874:gpio_dm1[5] O *D counter_gpio_config_example
*CAP
1 gpio_dm1[5] 0.000178447
2 *874:gpio_dm1[5] 0.00403871
3 *304:13 0.170083
4 *304:11 0.169905
5 *304:9 0.0155803
6 *304:7 0.019619
7 *304:9 *374:9 0.0112993
8 *304:9 *440:9 0.0446337
9 *304:9 *822:10 0
10 *107:7 *304:7 0.000990957
11 *133:7 *304:7 0.000371086
12 *178:17 *304:9 0.00259294
13 *193:9 *304:9 0.0174575
14 *206:11 *304:7 0
15 *260:13 *304:13 0
*RES
1 *874:gpio_dm1[5] *304:7 9.57947 
2 *304:7 *304:9 556.005 
3 *304:9 *304:11 0.5 
4 *304:11 *304:13 384.723 
5 *304:13 gpio_dm1[5] 0.4845 
*END

*D_NET *305 0.456245
*CONN
*P gpio_dm1[6] O
*I *874:gpio_dm1[6] O *D counter_gpio_config_example
*CAP
1 gpio_dm1[6] 0.000129769
2 *874:gpio_dm1[6] 0.0037702
3 *305:13 0.166103
4 *305:11 0.165974
5 *305:9 0.0267915
6 *305:7 0.0305617
7 *305:7 *309:7 0.000427978
8 *305:7 *314:7 0.000777195
9 *305:13 gpio_slow_sel[6] 0
10 *241:9 *305:9 0.0617098
*RES
1 *874:gpio_dm1[6] *305:7 8.70547 
2 *305:7 *305:9 713.595 
3 *305:9 *305:11 0.5 
4 *305:11 *305:13 383.849 
5 *305:13 gpio_dm1[6] 0.342633 
*END

*D_NET *306 0.598792
*CONN
*P gpio_dm1[7] O
*I *874:gpio_dm1[7] O *D counter_gpio_config_example
*CAP
1 gpio_dm1[7] 0.00293614
2 *874:gpio_dm1[7] 0.00441532
3 *306:13 0.170636
4 *306:11 0.1677
5 *306:9 0.0622019
6 *306:7 0.0666173
7 *306:7 *307:7 0
8 *306:9 *382:9 0
9 *306:9 *393:9 0.0115063
10 *130:17 *306:13 0
11 *196:7 *306:7 0.00126297
12 *204:7 *306:7 0.000593317
13 *219:9 *306:9 0.110923
*RES
1 *874:gpio_dm1[7] *306:7 12.0267 
2 *306:7 *306:9 1597.94 
3 *306:9 *306:11 0.5 
4 *306:11 *306:13 382.005 
5 *306:13 gpio_dm1[7] 5.92357 
*END

*D_NET *307 0.660823
*CONN
*P gpio_dm1[8] O
*I *874:gpio_dm1[8] O *D counter_gpio_config_example
*CAP
1 gpio_dm1[8] 0.000158011
2 *874:gpio_dm1[8] 0.00607238
3 *307:21 0.164037
4 *307:19 0.163878
5 *307:17 0.0426905
6 *307:15 0.042897
7 *307:9 0.0140243
8 *307:7 0.0198901
9 *307:7 *354:15 9.83877e-05
10 *307:17 *354:17 0.126107
11 *307:17 *373:9 0.0508301
12 *307:21 *791:17 0
13 *161:9 *307:9 0
14 *163:11 *307:9 0
15 *204:7 *307:7 0.000598269
16 *206:11 *307:9 0.00115187
17 *242:7 *307:15 7.23804e-05
18 *248:9 *307:9 0
19 *263:17 *307:21 0
20 *284:7 *307:7 0
21 *291:9 *307:9 0.0283178
22 *306:7 *307:7 0
*RES
1 *874:gpio_dm1[8] *307:7 14.2699 
2 *307:7 *307:9 53.5268 
3 *307:9 *307:15 1.475 
4 *307:15 *307:17 1457.18 
5 *307:17 *307:19 0.5 
6 *307:19 *307:21 388.977 
7 *307:21 gpio_dm1[8] 0.4541 
*END

*D_NET *308 0.501453
*CONN
*P gpio_dm1[9] O
*I *874:gpio_dm1[9] O *D counter_gpio_config_example
*CAP
1 gpio_dm1[9] 3.45993e-05
2 *874:gpio_dm1[9] 0.0181926
3 *308:17 0.107668
4 *308:15 0.107634
5 *308:13 0.0935931
6 *308:11 0.111786
7 *308:11 *388:11 0.00149749
8 *308:11 *539:9 0
9 *308:13 *363:13 0.0608638
10 *113:11 *308:11 0.000183511
11 *264:13 *308:17 0
12 *269:13 *308:13 0
*RES
1 *874:gpio_dm1[9] *308:11 42.2405 
2 *308:11 *308:13 235.01 
3 *308:13 *308:15 0.5 
4 *308:15 *308:17 258.314 
5 *308:17 gpio_dm1[9] 0.0994333 
*END

*D_NET *309 0.724013
*CONN
*P gpio_dm2[0] O
*I *874:gpio_dm2[0] O *D counter_gpio_config_example
*CAP
1 gpio_dm2[0] 0.00105253
2 *874:gpio_dm2[0] 0.00225775
3 *309:17 0.00302167
4 *309:15 0.00196914
5 *309:13 0.101363
6 *309:11 0.101363
7 *309:9 0.0179264
8 *309:7 0.0201842
9 gpio_dm2[0] gpio_holdover[0] 0
10 *309:7 *532:17 0.000110047
11 *309:9 *325:9 0
12 *309:9 *377:9 0.00015391
13 *309:9 *471:11 0.00182632
14 *309:13 *874:gpio_in[3] 0.00337904
15 *309:13 *342:19 4.34222e-05
16 *309:13 *342:21 0.0517216
17 *309:13 *460:21 0.000152259
18 *309:13 *461:21 0.000334719
19 *309:13 *471:15 0.0237142
20 *309:13 *482:15 0.0485019
21 *309:13 *484:15 0.0570389
22 *309:13 *683:11 0
23 *309:17 *529:17 0
24 gpio_analog_sel[0] gpio_dm2[0] 0.00178524
25 *91:9 *309:9 0.0213039
26 *93:15 *309:9 0
27 *115:9 *309:9 0.00186197
28 *123:9 *309:9 0.00376873
29 *133:9 *309:9 0
30 *133:13 *309:13 0.243863
31 *133:17 *309:17 0.00376926
32 *155:19 *309:13 0.000246843
33 *155:25 *309:17 0.00448622
34 *204:9 *309:9 0.00630088
35 *271:7 *309:7 8.46642e-05
36 *305:7 *309:7 0.000427978
*RES
1 *874:gpio_dm2[0] *309:7 5.18033 
2 *309:7 *309:9 61.8817 
3 *309:9 *309:11 0.5 
4 *309:11 *309:13 377.519 
5 *309:13 *309:15 0.5 
6 *309:15 *309:17 87.315 
7 *309:17 gpio_dm2[0] 3.39497 
*END

*D_NET *310 0.725445
*CONN
*P gpio_dm2[10] O
*I *874:gpio_dm2[10] O *D counter_gpio_config_example
*CAP
1 gpio_dm2[10] 9.23492e-05
2 *874:gpio_dm2[10] 0.004154
3 *310:17 0.0821193
4 *310:15 0.082027
5 *310:13 0.102053
6 *310:11 0.106207
7 *310:11 *408:17 0
8 *310:13 *408:13 0
9 *310:17 gpio_holdover[10] 0.000395146
10 *310:17 *354:21 0.190219
11 *310:17 *706:17 0
12 *94:13 *310:13 0.151835
13 *121:13 *310:13 0.00117277
14 *130:11 *310:11 0.00112455
15 *137:11 *310:11 2.48687e-05
16 *213:13 *310:13 0.00402083
17 *263:13 *310:13 0
18 *278:11 *310:11 0
*RES
1 *874:gpio_dm2[10] *310:11 10.893 
2 *310:11 *310:13 338.456 
3 *310:13 *310:15 0.5 
4 *310:15 *310:17 289.661 
5 *310:17 gpio_dm2[10] 0.243833 
*END

*D_NET *311 0.878698
*CONN
*P gpio_dm2[11] O
*I *874:gpio_dm2[11] O *D counter_gpio_config_example
*CAP
1 gpio_dm2[11] 0.00268984
2 *874:gpio_dm2[11] 0.000892607
3 *311:13 0.107328
4 *311:11 0.104638
5 *311:9 0.0438892
6 *311:7 0.0447818
7 gpio_dm2[11] gpio_holdover[11] 0.000272132
8 gpio_dm2[11] *355:17 0.000408902
9 *311:7 *317:7 0.000180708
10 *311:9 *352:17 0.145811
11 *311:9 *359:9 0.00420604
12 *311:9 *663:9 0.182361
13 *311:13 *355:17 0
14 *115:7 *311:7 0.000182312
15 *179:21 gpio_dm2[11] 0
16 *179:21 *311:13 0.241057
*RES
1 *874:gpio_dm2[11] *311:7 2.47093 
2 *311:7 *311:9 2108.45 
3 *311:9 *311:11 0.5 
4 *311:11 *311:13 372.449 
5 *311:13 gpio_dm2[11] 5.99197 
*END

*D_NET *312 0.620328
*CONN
*P gpio_dm2[12] O
*I *874:gpio_dm2[12] O *D counter_gpio_config_example
*CAP
1 gpio_dm2[12] 0.00225702
2 *874:gpio_dm2[12] 0.000127913
3 *312:17 0.0580734
4 *312:15 0.0558164
5 *312:13 0.144642
6 *312:11 0.144642
7 *312:9 0.0326522
8 *312:7 0.0327801
9 gpio_dm2[12] gpio_holdover[12] 0
10 *312:7 *376:11 5.42305e-05
11 *312:7 *436:11 4.7387e-05
12 *312:9 *376:11 0.000706402
13 *312:9 *436:11 0.00268994
14 *312:9 *683:17 0.0186215
15 *312:13 *394:13 0
16 *312:17 gpio_holdover[12] 0
17 *175:9 *312:9 0
18 *180:13 gpio_dm2[12] 0.00170752
19 *180:13 *312:17 0.125511
*RES
1 *874:gpio_dm2[12] *312:7 0.449667 
2 *312:7 *312:9 100.723 
3 *312:9 *312:11 0.5 
4 *312:11 *312:13 366.019 
5 *312:13 *312:15 0.5 
6 *312:15 *312:17 193.716 
7 *312:17 gpio_dm2[12] 5.6373 
*END

*D_NET *313 0.566613
*CONN
*P gpio_dm2[13] O
*I *874:gpio_dm2[13] O *D counter_gpio_config_example
*CAP
1 gpio_dm2[13] 0.00973163
2 *874:gpio_dm2[13] 0.000181615
3 *313:20 1.55914e-05
4 *313:13 0.161036
5 *313:11 0.15132
6 *313:9 0.110158
7 *313:7 0.110339
8 gpio_dm2[13] gpio_holdover[13] 0.000858335
9 gpio_dm2[13] gpio_out[13] 0
10 gpio_dm2[13] *357:25 0.0189309
11 *313:7 *427:11 3.59844e-05
12 *313:9 *427:11 2.91491e-05
13 *313:9 *531:11 0
14 *313:9 *533:19 0
15 *313:13 *711:21 0
16 *267:11 *313:7 3.54641e-05
17 *267:11 *313:9 0.00394152
*RES
1 *874:gpio_dm2[13] *313:7 0.449667 
2 *313:7 *313:9 267.715 
3 *313:9 *313:11 0.5 
4 *313:11 *313:13 384.537 
5 *313:13 gpio_dm2[13] 32.3896 
6 gpio_dm2[13] *313:20 0.0411667 
*END

*D_NET *314 1.01387
*CONN
*P gpio_dm2[14] O
*I *874:gpio_dm2[14] O *D counter_gpio_config_example
*CAP
1 gpio_dm2[14] 0.00130701
2 *874:gpio_dm2[14] 0.0043387
3 *314:13 0.124803
4 *314:11 0.123496
5 *314:9 0.10115
6 *314:7 0.105488
7 gpio_dm2[14] *358:17 0.000271408
8 *314:7 *373:7 0.000953049
9 *314:9 *469:11 0
10 *314:13 gpio_inp_dis[24] 0.0161873
11 gpio_analog_sel[24] *314:13 0
12 *149:25 *314:13 0
13 *182:17 gpio_dm2[14] 0.000395146
14 *182:17 *314:13 0.175253
15 *191:9 *314:9 0.258266
16 *193:17 *314:9 0.0355093
17 *196:9 *314:9 0.0490134
18 *247:9 *314:9 0.016667
19 *305:7 *314:7 0.000777195
*RES
1 *874:gpio_dm2[14] *314:7 10.3952 
2 *314:7 *314:9 2915.77 
3 *314:9 *314:11 0.5 
4 *314:11 *314:13 382.967 
5 *314:13 gpio_dm2[14] 6.55503 
*END

*D_NET *315 0.541126
*CONN
*P gpio_dm2[15] O
*I *874:gpio_dm2[15] O *D counter_gpio_config_example
*CAP
1 gpio_dm2[15] 0.00394142
2 *874:gpio_dm2[15] 0.000157997
3 *315:13 0.160006
4 *315:11 0.156064
5 *315:9 0.105665
6 *315:7 0.105823
7 gpio_dm2[15] gpio_holdover[15] 0
8 gpio_dm2[15] *359:17 0
9 *315:7 *341:7 4.14661e-05
10 *315:9 gpio_slow_sel[3] 0
11 *315:9 *319:11 0
12 *315:9 *341:7 5.68526e-06
13 *315:9 *341:9 0.00893487
14 *315:9 *474:7 0
15 gpio_analog_sel[15] gpio_dm2[15] 0
16 *203:11 *315:7 5.03474e-05
17 *203:11 *315:9 0.000437213
*RES
1 *874:gpio_dm2[15] *315:7 0.332838 
2 *315:7 *315:9 264.248 
3 *315:9 *315:11 0.5 
4 *315:11 *315:13 2832.65 
5 *315:13 gpio_dm2[15] 20.9963 
*END

*D_NET *316 0.858167
*CONN
*P gpio_dm2[16] O
*I *874:gpio_dm2[16] O *D counter_gpio_config_example
*CAP
1 gpio_dm2[16] 0.000950018
2 *874:gpio_dm2[16] 0.00197858
3 *316:15 0.0620245
4 *316:13 0.0610745
5 *316:11 0.105535
6 *316:9 0.107514
7 gpio_dm2[16] gpio_holdover[16] 0
8 *316:9 *350:13 0.00145626
9 *316:9 *379:11 0
10 *316:9 *402:7 0
11 *316:11 *369:9 0.25196
12 *316:15 *361:13 0.037955
13 gpio_analog_sel[16] gpio_dm2[16] 0
14 *96:13 *316:15 0.18481
15 *99:9 *316:11 0
16 *105:17 *316:11 0.0174761
17 *184:21 *316:15 0
18 *244:9 *316:11 0.0254329
*RES
1 *874:gpio_dm2[16] *316:9 4.75093 
2 *316:9 *316:11 2968.69 
3 *316:11 *316:13 2 
4 *316:13 *316:15 1700.95 
5 *316:15 gpio_dm2[16] 19.01 
*END

*D_NET *317 0.616392
*CONN
*P gpio_dm2[17] O
*I *874:gpio_dm2[17] O *D counter_gpio_config_example
*CAP
1 gpio_dm2[17] 0.149718
2 *874:gpio_dm2[17] 0.00108235
3 *317:15 0.149718
4 *317:13 0.107002
5 *317:11 0.107002
6 *317:9 0.00745502
7 *317:7 0.00853738
8 gpio_dm2[17] gpio_holdover[17] 0
9 *317:7 *322:7 0.00021102
10 *317:9 *322:9 0.0391827
11 *317:9 *323:9 0.00271249
12 *317:9 *350:15 0.00678184
13 *317:9 *352:9 0.000318962
14 *317:9 *535:9 0.0359817
15 *317:13 *688:19 0.000508486
16 gpio_analog_sel[17] gpio_dm2[17] 0
17 *115:7 *317:7 0
18 *311:7 *317:7 0.000180708
*RES
1 *874:gpio_dm2[17] *317:7 2.82053 
2 *317:7 *317:9 461.655 
3 *317:9 *317:11 0.5 
4 *317:11 *317:13 252.915 
5 *317:13 *317:15 0.5 
6 *317:15 gpio_dm2[17] 2610.23 
*END

*D_NET *318 0.420243
*CONN
*P gpio_dm2[18] O
*I *874:gpio_dm2[18] O *D counter_gpio_config_example
*CAP
1 gpio_dm2[18] 0.00328862
2 *874:gpio_dm2[18] 0.000149414
3 *318:13 0.162765
4 *318:11 0.159476
5 *318:9 0.0470358
6 *318:7 0.0471852
7 gpio_dm2[18] gpio_holdover[18] 0
8 gpio_dm2[18] gpio_out[18] 0
9 *318:7 *556:11 4.90961e-05
10 *318:9 *372:11 0
11 *318:9 *556:11 0.000116483
12 gpio_analog_sel[18] gpio_dm2[18] 0
13 *98:11 *318:9 0
14 *274:13 gpio_dm2[18] 0
15 *290:11 *318:7 4.34109e-05
16 *290:11 *318:9 0.000134159
*RES
1 *874:gpio_dm2[18] *318:7 0.449667 
2 *318:7 *318:9 112.172 
3 *318:9 *318:11 0.5 
4 *318:11 *318:13 2891.29 
5 *318:13 gpio_dm2[18] 19.332 
*END

*D_NET *319 0.383302
*CONN
*P gpio_dm2[19] O
*I *874:gpio_dm2[19] O *D counter_gpio_config_example
*CAP
1 gpio_dm2[19] 0.00354145
2 *874:gpio_dm2[19] 0.0133458
3 *319:13 0.159847
4 *319:11 0.169651
5 gpio_dm2[19] gpio_holdover[19] 0
6 *319:11 *474:7 0.0287329
7 gpio_analog_sel[19] gpio_dm2[19] 0
8 gpio_dm1[19] gpio_dm2[19] 0
9 gpio_dm1[36] *319:11 0.0007533
10 *183:21 gpio_dm2[19] 0.000511719
11 *184:21 gpio_dm2[19] 0.000722496
12 *203:11 *319:11 0.00046946
13 *254:15 *319:11 4.71514e-05
14 *272:21 gpio_dm2[19] 0.000534019
15 *274:13 gpio_dm2[19] 0.00514614
16 *315:9 *319:11 0
*RES
1 *874:gpio_dm2[19] *319:11 46.784 
2 *319:11 *319:13 2833.16 
3 *319:13 gpio_dm2[19] 25.3348 
*END

*D_NET *320 0.382772
*CONN
*P gpio_dm2[1] O
*I *874:gpio_dm2[1] O *D counter_gpio_config_example
*CAP
1 gpio_dm2[1] 0.000917177
2 *874:gpio_dm2[1] 0.000157997
3 *320:17 0.0652247
4 *320:15 0.0643076
5 *320:13 0.0226041
6 *320:11 0.0226041
7 *320:9 0.0157646
8 *320:7 0.0159226
9 gpio_dm2[1] *364:17 0.00164173
10 *320:17 *364:17 0.146334
11 *320:17 *429:9 0.00210799
12 *320:17 *716:27 0
13 gpio_analog_sel[1] gpio_dm2[1] 0.000398607
14 *131:9 *320:17 0
15 *155:25 gpio_dm2[1] 0
16 *218:7 *320:7 4.14661e-05
17 *218:7 *320:9 5.68526e-06
18 *218:9 *320:9 0.00703503
19 *222:9 *320:17 0.0106198
20 *226:7 *320:7 3.1682e-05
21 *226:9 *320:7 1.86654e-05
22 *226:9 *320:9 0.00703503
*RES
1 *874:gpio_dm2[1] *320:7 0.332838 
2 *320:7 *320:9 51.7788 
3 *320:9 *320:11 0.5 
4 *320:11 *320:13 55.594 
5 *320:13 *320:15 0.5 
6 *320:15 *320:17 245.253 
7 *320:17 gpio_dm2[1] 4.9503 
*END

*D_NET *321 0.316661
*CONN
*P gpio_dm2[20] O
*I *874:gpio_dm2[20] O *D counter_gpio_config_example
*CAP
1 gpio_dm2[20] 7.849e-05
2 *874:gpio_dm2[20] 0.00995128
3 *321:13 0.148246
4 *321:11 0.158119
5 gpio_dm2[20] gpio_holdover[20] 0
6 *321:11 *338:11 7.66446e-05
7 *321:11 *380:11 0.00018965
8 *321:11 *410:15 0
9 *321:13 gpio_holdover[20] 0
10 *321:13 *567:27 0
11 gpio_analog_sel[20] gpio_dm2[20] 0
12 gpio_analog_sel[20] *321:13 0
13 *134:9 *321:11 0
*RES
1 *874:gpio_dm2[20] *321:11 21.9547 
2 *321:11 *321:13 2688.31 
3 *321:13 gpio_dm2[20] 1.35 
*END

*D_NET *322 0.497856
*CONN
*P gpio_dm2[21] O
*I *874:gpio_dm2[21] O *D counter_gpio_config_example
*CAP
1 gpio_dm2[21] 8.17048e-05
2 *874:gpio_dm2[21] 0.00119486
3 *322:17 0.150821
4 *322:15 0.150739
5 *322:13 0.0152489
6 *322:11 0.0152489
7 *322:9 0.00770113
8 *322:7 0.00889598
9 gpio_dm2[21] gpio_holdover[21] 0
10 *322:9 *350:15 0.00560723
11 *322:9 *352:9 0.000208883
12 *322:9 *542:9 0.0366466
13 *322:9 *666:17 0
14 *322:13 *360:13 0
15 *322:13 *543:19 0.01967
16 *322:13 *665:28 0.00340916
17 *322:17 gpio_holdover[21] 0
18 gpio_analog_sel[21] gpio_dm2[21] 0
19 *190:33 *322:17 0
20 *247:7 *322:7 0
21 *290:17 *322:13 0.0429893
22 *317:7 *322:7 0.00021102
23 *317:9 *322:9 0.0391827
*RES
1 *874:gpio_dm2[21] *322:7 2.8788 
2 *322:7 *322:9 444.315 
3 *322:9 *322:11 0.5 
4 *322:11 *322:13 66.9281 
5 *322:13 *322:15 0.5 
6 *322:15 *322:17 2624.05 
7 *322:17 gpio_dm2[21] 1.35 
*END

*D_NET *323 0.444861
*CONN
*P gpio_dm2[22] O
*I *874:gpio_dm2[22] O *D counter_gpio_config_example
*CAP
1 gpio_dm2[22] 0.145365
2 *874:gpio_dm2[22] 0.000915123
3 *323:15 0.156071
4 *323:9 0.0194115
5 *323:7 0.00962045
6 gpio_dm2[22] gpio_holdover[22] 0
7 *323:7 *344:17 0.000146227
8 *323:7 *538:7 0.000208235
9 *323:9 *324:9 0.0433025
10 *323:9 *350:15 0.00525148
11 *323:9 *352:9 0.00054941
12 *323:9 *535:9 0.0338764
13 *323:9 *666:17 0
14 *323:15 *542:21 0.00100324
15 *323:15 *553:18 0
16 *323:15 *781:15 0.00108701
17 gpio_analog_sel[22] gpio_dm2[22] 0
18 *104:27 *323:15 0.00255579
19 *142:13 *323:15 0
20 *147:23 *323:15 0.0215429
21 *179:15 *323:7 0.000191954
22 *233:19 *323:15 3.97095e-06
23 *233:21 *323:15 0.000666211
24 *271:19 *323:15 0.000236028
25 *271:21 *323:15 0.000144742
26 *317:9 *323:9 0.00271249
*RES
1 *874:gpio_dm2[22] *323:7 2.704 
2 *323:7 *323:9 491.235 
3 *323:9 *323:15 35.1823 
4 *323:15 gpio_dm2[22] 2634.2 
*END

*D_NET *324 0.487856
*CONN
*P gpio_dm2[23] O
*I *874:gpio_dm2[23] O *D counter_gpio_config_example
*CAP
1 gpio_dm2[23] 0.00208449
2 *874:gpio_dm2[23] 0.000933185
3 *324:17 0.106816
4 *324:15 0.105342
5 *324:9 0.00953646
6 *324:7 0.00985915
7 gpio_dm2[23] gpio_holdover[23] 0
8 *324:7 *538:7 0.000204264
9 *324:9 *359:9 0.0456094
10 *324:9 *535:9 0.0016367
11 *324:15 *406:13 0.000246433
12 *324:15 *537:13 0.000170229
13 *324:17 *368:65 0
14 *324:17 *532:19 0.159101
15 gpio_analog_sel[23] gpio_dm2[23] 0
16 *122:15 *324:7 0.000204264
17 *129:9 *324:17 0.00281026
18 *135:11 *324:17 0
19 *139:9 *324:17 0
20 *192:17 *324:17 0
21 *225:9 *324:17 0
22 *266:17 *324:17 0
23 *323:9 *324:9 0.0433025
*RES
1 *874:gpio_dm2[23] *324:7 2.64573 
2 *324:7 *324:9 528.465 
3 *324:9 *324:15 2.55293 
4 *324:15 *324:17 2566.98 
5 *324:17 gpio_dm2[23] 36.0975 
*END

*D_NET *325 0.622173
*CONN
*P gpio_dm2[24] O
*I *874:gpio_dm2[24] O *D counter_gpio_config_example
*CAP
1 gpio_dm2[24] 0.00919199
2 *874:gpio_dm2[24] 0.00231917
3 *325:9 0.181426
4 *325:7 0.174553
5 gpio_dm2[24] gpio_holdover[24] 0.000152599
6 *325:9 *470:11 0.00128176
7 *325:9 *821:13 0.0103969
8 gpio_analog_sel[24] gpio_dm2[24] 0
9 *95:9 *325:9 0.0196415
10 *96:9 *325:9 0.00961819
11 *99:7 *325:7 0.000463872
12 *151:9 *325:9 0.0375839
13 *197:9 *325:9 0.150066
14 *204:9 *325:9 0
15 *249:9 *325:9 0.0115277
16 *274:9 *325:9 0.00961819
17 *279:7 *325:7 0.000604001
18 *283:17 *325:9 0.00372764
19 *309:9 *325:9 0
*RES
1 *874:gpio_dm2[24] *325:7 6.34567 
2 *325:7 *325:9 531.222 
3 *325:9 gpio_dm2[24] 20.7736 
*END

*D_NET *326 0.522824
*CONN
*P gpio_dm2[25] O
*I *874:gpio_dm2[25] O *D counter_gpio_config_example
*CAP
1 gpio_dm2[25] 0.00217305
2 *874:gpio_dm2[25] 0.00283223
3 *326:25 0.0440714
4 *326:23 0.0418983
5 *326:21 0.0947113
6 *326:19 0.0947554
7 *326:13 0.00362633
8 *326:11 0.00641447
9 gpio_dm2[25] gpio_holdover[25] 0.000212182
10 *326:11 *334:11 0.000121196
11 *326:13 *446:11 0
12 *326:13 *544:13 0.00874814
13 *326:21 *415:13 0
14 *326:21 *444:11 0.00545182
15 *326:21 *446:11 0.00610519
16 *326:21 *531:13 0
17 *326:21 *533:21 0.0799092
18 *326:21 *544:13 0.000169048
19 gpio_analog_sel[25] gpio_dm2[25] 0.000475635
20 gpio_analog_sel[25] *326:25 0.00323937
21 *109:13 *326:13 0.00132316
22 *109:13 *326:21 0.126536
23 *149:21 *326:21 0
24 *156:11 *326:11 0
25 *176:13 *326:19 8.76348e-06
26 *195:7 *326:11 3.68451e-05
27 *211:11 *326:11 0
28 *281:21 *326:21 0
29 *286:19 *326:19 4.57523e-06
*RES
1 *874:gpio_dm2[25] *326:11 6.14427 
2 *326:11 *326:13 99.555 
3 *326:13 *326:19 1.06713 
4 *326:19 *326:21 316.492 
5 *326:21 *326:23 0.5 
6 *326:23 *326:25 102.354 
7 *326:25 gpio_dm2[25] 4.92417 
*END

*D_NET *327 0.5119
*CONN
*P gpio_dm2[26] O
*I *874:gpio_dm2[26] O *D counter_gpio_config_example
*CAP
1 gpio_dm2[26] 0.00322153
2 *874:gpio_dm2[26] 0.0067948
3 *327:9 0.130288
4 *327:7 0.133861
5 gpio_dm2[26] gpio_holdover[26] 0.000227869
6 *327:7 *374:7 0.00104845
7 *327:9 *459:11 0.0742526
8 *327:9 *538:9 0.0062177
9 gpio_analog_sel[26] gpio_dm2[26] 0.000485383
10 *178:15 *327:7 0
11 *184:7 *327:7 0.000911486
12 *195:13 gpio_dm2[26] 0.0045619
13 *198:9 *327:9 0.150029
14 *202:9 *327:9 0
15 *285:9 *327:9 0
*RES
1 *874:gpio_dm2[26] *327:7 16.7171 
2 *327:7 *327:9 373.857 
3 *327:9 gpio_dm2[26] 9.96643 
*END

*D_NET *328 0.524206
*CONN
*P gpio_dm2[27] O
*I *874:gpio_dm2[27] O *D counter_gpio_config_example
*CAP
1 gpio_dm2[27] 0.00504578
2 *874:gpio_dm2[27] 0.0046788
3 *328:9 0.0558165
4 *328:7 0.0554496
5 gpio_dm2[27] gpio_holdover[27] 0
6 *328:7 *383:7 0
7 gpio_analog_sel[27] gpio_dm2[27] 0.00979573
8 *129:7 *328:7 3.90861e-05
9 *150:9 *328:9 0.198945
10 *155:7 *328:7 0.000130569
11 *162:9 *328:9 0
12 *193:17 *328:9 2.87322e-06
13 *196:9 *328:9 0.194302
14 *284:9 *328:9 0
15 *291:7 *328:7 0
*RES
1 *874:gpio_dm2[27] *328:7 10.6574 
2 *328:7 *328:9 374.287 
3 *328:9 gpio_dm2[27] 15.9261 
*END

*D_NET *329 0.324168
*CONN
*P gpio_dm2[28] O
*I *874:gpio_dm2[28] O *D counter_gpio_config_example
*CAP
1 gpio_dm2[28] 0.00714321
2 *874:gpio_dm2[28] 0.00347985
3 *329:17 0.0485789
4 *329:15 0.0415208
5 *329:9 0.0279262
6 *329:7 0.031321
7 gpio_dm2[28] gpio_holdover[28] 0.00666298
8 gpio_dm2[28] gpio_out[28] 0
9 *329:7 *412:7 0
10 *329:15 gpio_ib_mode_sel[31] 5.71181e-06
11 gpio_analog_sel[28] gpio_dm2[28] 0
12 *101:9 *329:9 0.102775
13 *118:18 *329:7 0.000109072
14 *190:7 *329:7 5.00763e-05
15 *217:7 *329:7 0.000754278
16 *217:9 *329:9 0.0537108
17 *259:17 *329:9 0.000130496
*RES
1 *874:gpio_dm2[28] *329:7 7.71493 
2 *329:7 *329:9 1160.35 
3 *329:9 *329:15 1.18367 
4 *329:15 *329:17 83.5873 
5 *329:17 gpio_dm2[28] 21.6429 
*END

*D_NET *330 0.302844
*CONN
*P gpio_dm2[29] O
*I *874:gpio_dm2[29] O *D counter_gpio_config_example
*CAP
1 gpio_dm2[29] 0.00183375
2 *874:gpio_dm2[29] 0.00174003
3 *330:33 0.0456022
4 *330:31 0.0471632
5 *330:21 0.05525
6 *330:19 0.0521226
7 *330:13 0.0122132
8 *330:11 0.0136859
9 gpio_dm2[29] gpio_holdover[29] 0.000658677
10 *330:11 *331:7 3.96238e-05
11 *330:11 *331:9 0.000353199
12 *330:13 *372:13 0.00417883
13 *330:21 *415:13 0.000121367
14 *330:33 gpio_holdover[29] 8.24893e-06
15 gpio_analog_sel[29] gpio_dm2[29] 0.000664389
16 gpio_analog_sel[29] *330:33 0.000525368
17 *103:13 *330:13 0.00504246
18 *106:13 *330:13 0.012646
19 *106:19 *330:31 0.00033241
20 *106:21 *330:31 5.43466e-05
21 *134:7 *330:11 4.31109e-05
22 *134:9 *330:11 0.000349712
23 *149:21 *330:21 0.0384587
24 *149:21 *330:31 0.00092049
25 *203:17 *330:19 0
26 *238:13 *330:13 6.84676e-05
27 *240:13 *330:13 3.53895e-05
28 *246:37 *330:21 0.00863112
29 *246:51 *330:21 0.000100791
*RES
1 *874:gpio_dm2[29] *330:11 4.45453 
2 *330:11 *330:13 317.325 
3 *330:13 *330:19 1.53327 
4 *330:19 *330:21 157.399 
5 *330:21 *330:31 8.48507 
6 *330:31 *330:33 97.926 
7 *330:33 gpio_dm2[29] 4.78737 
*END

*D_NET *331 0.310564
*CONN
*P gpio_dm2[2] O
*I *874:gpio_dm2[2] O *D counter_gpio_config_example
*CAP
1 gpio_dm2[2] 0.00472016
2 *874:gpio_dm2[2] 0.000174742
3 *331:15 0.0133371
4 *331:9 0.129284
5 *331:7 0.120842
6 gpio_dm2[2] gpio_holdover[2] 0.00163962
7 gpio_dm2[2] gpio_out[2] 0.000297251
8 gpio_dm2[2] *342:25 0
9 gpio_dm2[2] *375:19 0
10 gpio_dm2[2] *833:13 0
11 *331:7 *367:15 4.31109e-05
12 *331:9 *346:17 0
13 *331:9 *367:15 0.000282846
14 *331:9 *423:11 0
15 *331:15 gpio_holdover[3] 0.0127558
16 *92:13 *331:15 0.024762
17 *134:9 *331:9 0
18 *261:13 *331:15 0.0020328
19 *330:11 *331:7 3.96238e-05
20 *330:11 *331:9 0.000353199
*RES
1 *874:gpio_dm2[2] *331:7 0.449667 
2 *331:7 *331:9 289.623 
3 *331:9 *331:15 47.55 
4 *331:15 gpio_dm2[2] 15.2569 
*END

*D_NET *332 0.248918
*CONN
*P gpio_dm2[30] O
*I *874:gpio_dm2[30] O *D counter_gpio_config_example
*CAP
1 gpio_dm2[30] 0.00282852
2 *874:gpio_dm2[30] 0.00764068
3 *332:17 0.055582
4 *332:15 0.0530187
5 *332:9 0.0579832
6 *332:7 0.0653587
7 gpio_dm2[30] gpio_holdover[30] 0
8 *332:9 *459:11 0
9 *332:9 *461:11 0
10 *332:15 gpio_inp_dis[32] 9.69386e-05
11 *332:17 gpio_inp_dis[32] 6.09935e-05
12 gpio_analog_sel[30] gpio_dm2[30] 0.00141871
13 *139:7 *332:7 4.09696e-05
14 *158:15 *332:15 0.000480488
15 *200:17 gpio_dm2[30] 0.00366935
16 *259:15 *332:7 0.000739135
*RES
1 *874:gpio_dm2[30] *332:7 17.2707 
2 *332:7 *332:9 1004.29 
3 *332:9 *332:15 1.76633 
4 *332:15 *332:17 106.671 
5 *332:17 gpio_dm2[30] 8.57943 
*END

*D_NET *333 0.261598
*CONN
*P gpio_dm2[31] O
*I *874:gpio_dm2[31] O *D counter_gpio_config_example
*CAP
1 gpio_dm2[31] 0.00641644
2 *874:gpio_dm2[31] 0.00402588
3 *333:9 0.0555998
4 *333:7 0.0532092
5 gpio_dm2[31] gpio_holdover[31] 0.00858631
6 *333:7 *395:7 0.000939818
7 *333:9 *374:9 0.0121447
8 *333:9 *418:9 0.115003
9 gpio_analog_sel[31] gpio_dm2[31] 0
10 *162:9 *333:9 0.00562683
11 *241:17 gpio_dm2[31] 4.57382e-05
*RES
1 *874:gpio_dm2[31] *333:7 9.14247 
2 *333:7 *333:9 216.405 
3 *333:9 gpio_dm2[31] 18.0275 
*END

*D_NET *334 0.207842
*CONN
*P gpio_dm2[32] O
*I *874:gpio_dm2[32] O *D counter_gpio_config_example
*CAP
1 gpio_dm2[32] 0.000109528
2 *874:gpio_dm2[32] 0.00058587
3 *334:17 0.0451709
4 *334:15 0.0450614
5 *334:13 0.0222188
6 *334:11 0.0228046
7 *334:13 *335:13 0.0034022
8 *334:13 *337:13 0.000708817
9 *334:13 *368:57 0.000162272
10 *334:13 *378:19 0.000374174
11 *334:13 *378:21 0.0455745
12 *334:13 *549:13 0.000106321
13 *334:13 *556:13 0.0185659
14 *334:17 gpio_holdover[32] 0.00160703
15 *334:17 *378:25 0
16 gpio_analog_sel[32] *334:17 0.00111817
17 *156:11 *334:11 0.00015023
18 *326:11 *334:11 0.000121196
*RES
1 *874:gpio_dm2[32] *334:11 1.91993 
2 *334:11 *334:13 88.9276 
3 *334:13 *334:15 0.5 
4 *334:15 *334:17 102.51 
5 *334:17 gpio_dm2[32] 0.314767 
*END

*D_NET *335 0.249646
*CONN
*P gpio_dm2[33] O
*I *874:gpio_dm2[33] O *D counter_gpio_config_example
*CAP
1 gpio_dm2[33] 0.000410068
2 *874:gpio_dm2[33] 0.000525594
3 *335:17 0.0385214
4 *335:15 0.0381113
5 *335:13 0.0165093
6 *335:11 0.0170349
7 gpio_dm2[33] gpio_holdover[33] 0
8 gpio_dm2[33] *726:21 0.000656975
9 *335:11 *403:7 3.14976e-05
10 *335:11 *403:9 0.000108267
11 *335:13 *337:13 0.0353592
12 *335:13 *368:31 0.000103095
13 *335:13 *422:13 0.0626105
14 *335:13 *463:11 0.00214992
15 *335:13 *556:13 0.000318962
16 *335:17 gpio_holdover[33] 0.00142421
17 *335:17 *708:9 0.0315862
18 gpio_analog_sel[33] gpio_dm2[33] 0.00017628
19 *200:11 *335:11 4.86449e-05
20 *270:11 *335:11 0
21 *290:13 *335:13 0.000557252
22 *334:13 *335:13 0.0034022
*RES
1 *874:gpio_dm2[33] *335:11 1.94907 
2 *335:11 *335:13 713.085 
3 *335:13 *335:15 0.5 
4 *335:15 *335:17 102.238 
5 *335:17 gpio_dm2[33] 8.96672 
*END

*D_NET *336 0.113336
*CONN
*P gpio_dm2[34] O
*I *874:gpio_dm2[34] O *D counter_gpio_config_example
*CAP
1 gpio_dm2[34] 0.00455983
2 *874:gpio_dm2[34] 0.00667315
3 *336:9 0.0171766
4 *336:7 0.0192899
5 gpio_dm2[34] *380:17 0.0016487
6 *336:7 *361:7 0
7 *336:7 *413:7 0.00156607
8 *336:9 *361:9 0.00837677
9 *336:9 *365:9 0.00492547
10 *336:9 *413:17 0.00736207
11 gpio_analog_sel[34] gpio_dm2[34] 0
12 *157:17 *336:9 0.00598374
13 *159:9 *336:9 0.0350782
14 *260:7 *336:7 0.000695786
15 *289:9 *336:9 0
*RES
1 *874:gpio_dm2[34] *336:7 15.6683 
2 *336:7 *336:9 66.1023 
3 *336:9 gpio_dm2[34] 11.1216 
*END

*D_NET *337 0.254877
*CONN
*P gpio_dm2[35] O
*I *874:gpio_dm2[35] O *D counter_gpio_config_example
*CAP
1 gpio_dm2[35] 0.000337486
2 *874:gpio_dm2[35] 0.000637944
3 *337:21 0.00154835
4 *337:19 0.00121087
5 *337:17 0.0163758
6 *337:15 0.0163758
7 *337:13 0.00994379
8 *337:11 0.0105817
9 gpio_dm2[35] gpio_holdover[35] 0
10 *337:13 *463:11 0.00130856
11 *337:13 *557:13 0
12 *337:17 *338:17 3.14528e-05
13 *337:17 *557:17 0.0663264
14 *337:17 *829:16 0.00137446
15 *337:21 *381:21 0.00555995
16 *337:21 *557:21 0.00454729
17 *337:21 *726:21 0.000396346
18 gpio_analog_sel[35] gpio_dm2[35] 0.000190192
19 *103:11 *337:11 0
20 *170:13 *337:11 0.000139496
21 *215:33 *337:17 0.00285829
22 *290:13 *337:13 0.0129039
23 *293:17 *337:17 0.0661604
24 *334:13 *337:13 0.000708817
25 *335:13 *337:13 0.0353592
*RES
1 *874:gpio_dm2[35] *337:11 2.00733 
2 *337:11 *337:13 404.025 
3 *337:13 *337:15 0.5 
4 *337:15 *337:17 102.063 
5 *337:17 *337:19 0.5 
6 *337:19 *337:21 64.365 
7 *337:21 gpio_dm2[35] 1.39363 
*END

*D_NET *338 0.230931
*CONN
*P gpio_dm2[36] O
*I *874:gpio_dm2[36] O *D counter_gpio_config_example
*CAP
1 gpio_dm2[36] 0.000230542
2 *874:gpio_dm2[36] 0.000388662
3 *338:21 0.00724406
4 *338:19 0.00701352
5 *338:17 0.0176583
6 *338:15 0.0176583
7 *338:13 0.00196456
8 *338:11 0.00235322
9 gpio_dm2[36] gpio_holdover[36] 7.99115e-05
10 *338:13 *427:13 0.00437405
11 *338:13 *546:13 0
12 *338:17 *347:21 0.00803555
13 *338:17 *381:17 6.17086e-06
14 *338:17 *427:17 0.06576
15 *338:17 *829:16 0.00134416
16 *338:21 *381:21 0.000144995
17 *338:21 *425:21 0.00666284
18 *338:21 *427:21 0.0198073
19 *338:21 *726:21 0
20 gpio_analog_sel[36] gpio_dm2[36] 0.000444805
21 *117:17 *338:17 1.95991e-05
22 *134:7 *338:11 3.59844e-05
23 *134:9 *338:11 3.58419e-05
24 *215:33 *338:17 0.00380029
25 *293:17 *338:17 0.06576
26 *321:11 *338:11 7.66446e-05
27 *337:17 *338:17 3.14528e-05
*RES
1 *874:gpio_dm2[36] *338:11 1.3664 
2 *338:11 *338:13 50.595 
3 *338:13 *338:15 0.5 
4 *338:15 *338:17 101.247 
5 *338:17 *338:19 0.5 
6 *338:19 *338:21 229.095 
7 *338:21 gpio_dm2[36] 1.24733 
*END

*D_NET *339 0.14104
*CONN
*P gpio_dm2[37] O
*I *874:gpio_dm2[37] O *D counter_gpio_config_example
*CAP
1 gpio_dm2[37] 0.00030211
2 *874:gpio_dm2[37] 0.0640524
3 *339:35 0.00256758
4 *339:33 0.0663178
5 gpio_dm2[37] gpio_holdover[37] 7.27101e-05
6 *339:33 *554:7 0.00045813
7 *339:35 gpio_vtrip_sel[37] 0
8 *339:35 *427:21 0
9 *339:35 *726:21 0.00521311
10 *160:15 *339:33 2.87821e-05
11 *256:7 *339:33 4.7387e-05
12 *256:9 *339:33 5.16043e-05
13 *262:7 *339:33 5.53887e-05
14 *262:9 *339:33 4.00083e-05
15 *295:24 *339:33 0.00183348
*RES
1 *874:gpio_dm2[37] *339:33 21.0306 
2 *339:33 *339:35 60.285 
3 *339:35 gpio_dm2[37] 1.2505 
*END

*D_NET *340 0.14896
*CONN
*P gpio_dm2[38] O
*I *874:gpio_dm2[38] O *D counter_gpio_config_example
*CAP
1 gpio_dm2[38] 0.000225055
2 *874:gpio_dm2[38] 0.000120261
3 *340:17 0.0122273
4 *340:15 0.0120023
5 *340:13 0.00219093
6 *340:11 0.00221572
7 *340:9 0.00376658
8 *340:7 0.00386206
9 gpio_dm2[38] *384:21 0
10 *340:7 *404:9 0.000110108
11 *340:7 *569:19 4.14589e-05
12 *340:9 *342:19 0.000389889
13 *340:9 *389:9 0.00128029
14 *340:9 *560:11 0
15 *340:9 *563:11 0
16 *340:13 *563:11 0
17 *340:17 *344:33 0.0100903
18 *340:17 *344:35 0.000258121
19 *340:17 *739:9 0.0203827
20 *340:17 *828:11 0.000424288
21 *340:17 *828:13 0.00468761
22 *123:21 *340:17 0.00425888
23 *162:7 *340:7 0
24 *164:13 *340:17 0.0458005
25 *168:19 *340:13 7.46502e-05
26 *208:40 gpio_dm2[38] 0.000102301
27 *212:13 *340:17 0.000392005
28 *296:9 *340:9 0.0119388
29 *296:9 *340:13 0.00298237
30 *300:21 *340:17 0.000236591
31 *301:9 *340:9 0.00889931
*RES
1 *874:gpio_dm2[38] *340:7 0.839467 
2 *340:7 *340:9 160.62 
3 *340:9 *340:11 0.45 
4 *340:11 *340:13 58.89 
5 *340:13 *340:15 0.5 
6 *340:15 *340:17 72.8713 
7 *340:17 gpio_dm2[38] 4.8875 
*END

*D_NET *341 0.162169
*CONN
*P gpio_dm2[39] O
*I *874:gpio_dm2[39] O *D counter_gpio_config_example
*CAP
1 gpio_dm2[39] 1.01935e-05
2 *874:gpio_dm2[39] 0.000161691
3 *341:13 0.0309943
4 *341:11 0.0309841
5 *341:9 0.0198076
6 *341:7 0.0199693
7 *341:9 gpio_slow_sel[3] 0.00870025
8 *341:13 gpio_holdover[39] 0.00126294
9 *341:13 *385:13 0.0411682
10 *128:15 *341:7 3.65739e-05
11 *128:15 *341:9 9.19363e-05
12 *315:7 *341:7 4.14661e-05
13 *315:9 *341:7 5.68526e-06
14 *315:9 *341:9 0.00893487
*RES
1 *874:gpio_dm2[39] *341:7 0.449667 
2 *341:7 *341:9 65.4423 
3 *341:9 *341:11 0.5 
4 *341:11 *341:13 732.615 
5 *341:13 gpio_dm2[39] 0.1875 
*END

*D_NET *342 0.543642
*CONN
*P gpio_dm2[3] O
*I *874:gpio_dm2[3] O *D counter_gpio_config_example
*CAP
1 gpio_dm2[3] 0.00144449
2 *874:gpio_dm2[3] 0.00869789
3 *342:25 0.0258314
4 *342:23 0.0243869
5 *342:21 0.0812663
6 *342:19 0.0899642
7 gpio_dm2[3] gpio_holdover[3] 0
8 gpio_dm2[3] *738:25 5.72191e-05
9 *342:19 *344:19 0.000243023
10 *342:19 *347:9 0.00213513
11 *342:19 *354:15 3.62288e-05
12 *342:19 *377:7 3.62288e-05
13 *342:19 *389:9 0.000337631
14 *342:19 *404:11 0.000407838
15 *342:19 *433:10 0
16 *342:19 *471:15 4.12356e-05
17 *342:19 *560:11 0.000738514
18 *342:19 *564:8 0.000537767
19 *342:19 *566:8 3.41524e-05
20 *342:21 *404:15 0.0155162
21 *342:21 *457:23 4.40693e-06
22 *342:21 *482:15 0.200143
23 *342:21 *484:15 0.000306744
24 *342:21 *662:25 0
25 *342:21 *738:17 0
26 *342:21 *782:27 0
27 *342:25 gpio_out[2] 0
28 gpio_analog_sel[3] gpio_dm2[3] 0.000324407
29 gpio_dm0[2] *342:25 0
30 gpio_dm0[3] *342:25 0
31 gpio_dm2[2] *342:25 0
32 *129:9 *342:19 0.0016124
33 *155:25 *342:25 0.0364094
34 *296:9 *342:19 0.00036281
35 *301:9 *342:19 0.000368884
36 *302:9 *342:19 0.000243023
37 *309:13 *342:19 4.34222e-05
38 *309:13 *342:21 0.0517216
39 *340:9 *342:19 0.000389889
*RES
1 *874:gpio_dm2[3] *342:19 22.35 
2 *342:19 *342:21 2207.76 
3 *342:21 *342:23 2 
4 *342:23 *342:25 593.107 
5 *342:25 gpio_dm2[3] 3.7927 
*END

*D_NET *343 0.198075
*CONN
*P gpio_dm2[40] O
*I *874:gpio_dm2[40] O *D counter_gpio_config_example
*CAP
1 gpio_dm2[40] 0.00102983
2 *874:gpio_dm2[40] 0.000279907
3 *343:21 0.00682846
4 *343:19 0.00579863
5 *343:17 0.026774
6 *343:15 0.026774
7 *343:13 0.007716
8 *343:11 0.00799591
9 gpio_dm2[40] *387:13 0
10 *343:11 *405:7 4.05433e-05
11 *343:11 *405:9 0
12 *343:11 *422:11 0.000148758
13 *343:13 *549:13 0
14 *343:13 *760:17 0.0194587
15 *343:13 *771:13 0.0245896
16 *343:17 *434:13 0.0657346
17 *211:21 gpio_dm2[40] 0
18 *211:21 *343:21 0.00490635
*RES
1 *874:gpio_dm2[40] *343:11 1.38657 
2 *343:11 *343:13 319.365 
3 *343:13 *343:15 0.5 
4 *343:15 *343:17 99.0913 
5 *343:17 *343:19 0.5 
6 *343:19 *343:21 119.573 
7 *343:21 gpio_dm2[40] 20.845 
*END

*D_NET *344 0.402135
*CONN
*P gpio_dm2[41] O
*I *874:gpio_dm2[41] O *D counter_gpio_config_example
*CAP
1 gpio_dm2[41] 0.000225884
2 *874:gpio_dm2[41] 0.00107594
3 *344:35 0.0181571
4 *344:33 0.0261714
5 *344:19 0.018128
6 *344:17 0.0109637
7 gpio_dm2[41] *388:25 0
8 *344:17 *532:17 1.93324e-06
9 *344:17 *664:18 0
10 *344:17 *665:20 0.000234659
11 *344:19 *347:9 0.00029583
12 *344:19 *389:9 0.0197835
13 *344:19 *391:9 0.000496193
14 *344:33 *433:22 0.00341332
15 *344:35 *433:22 0
16 *344:35 *739:9 0.0130909
17 *344:35 *828:13 0.0035646
18 gpio_analog_sel[41] gpio_dm2[41] 0
19 *125:19 *344:19 1.97826e-05
20 *125:21 *344:35 0.000876729
21 *139:9 *344:19 0.00128592
22 *147:9 *344:19 0.00366428
23 *164:13 *344:33 8.19515e-05
24 *164:13 *344:35 0.00477435
25 *168:19 *344:33 0.000129469
26 *168:21 *344:35 0.117878
27 *179:15 *344:17 9.58053e-05
28 *212:13 *344:35 0.000223887
29 *288:7 *344:17 6.46364e-05
30 *296:9 *344:19 0.0078975
31 *300:21 *344:35 0.109705
32 *301:9 *344:17 0.000643648
33 *302:9 *344:19 0.0284527
34 *323:7 *344:17 0.000146227
35 *340:17 *344:33 0.0100903
36 *340:17 *344:35 0.000258121
37 *342:19 *344:19 0.000243023
*RES
1 *874:gpio_dm2[41] *344:17 19.8798 
2 *344:17 *344:19 446.865 
3 *344:19 *344:33 30.4615 
4 *344:33 *344:35 1098.58 
5 *344:35 gpio_dm2[41] 5.915 
*END

*D_NET *345 0.222914
*CONN
*P gpio_dm2[42] O
*I *874:gpio_dm2[42] O *D counter_gpio_config_example
*CAP
1 gpio_dm2[42] 0.0102795
2 *874:gpio_dm2[42] 0.000147348
3 *345:17 0.0134849
4 *345:15 0.00323018
5 *345:13 0.0276697
6 *345:11 0.0276449
7 *345:9 0.0534124
8 *345:7 0.0535597
9 gpio_dm2[42] *389:21 0
10 gpio_dm2[42] *433:22 0.000252142
11 gpio_dm2[42] *478:9 0
12 *345:7 *394:7 3.80212e-05
13 *345:7 *394:9 6.11296e-06
14 *345:7 *400:11 3.80212e-05
15 *345:9 *394:9 0.0114821
16 *345:9 *400:11 0.00211842
17 *345:9 *463:7 0
18 *345:9 *771:21 0
19 *345:13 *696:18 0
20 *345:17 gpio_vtrip_sel[41] 4.55864e-06
21 *345:17 *432:23 0
22 *345:17 *696:18 0
23 gpio_dm0[42] gpio_dm2[42] 0.0195457
*RES
1 *874:gpio_dm2[42] *345:7 0.449667 
2 *345:7 *345:9 136.644 
3 *345:9 *345:11 0.5 
4 *345:11 *345:13 497.22 
5 *345:13 *345:15 0.45 
6 *345:15 *345:17 57.87 
7 *345:17 gpio_dm2[42] 38.9814 
*END

*D_NET *346 0.298627
*CONN
*P gpio_dm2[43] O
*I *874:gpio_dm2[43] O *D counter_gpio_config_example
*CAP
1 gpio_dm2[43] 0.000985539
2 *874:gpio_dm2[43] 0.00494509
3 *346:21 0.0389715
4 *346:19 0.037986
5 *346:17 0.0824541
6 *346:15 0.0873992
7 gpio_dm2[43] *390:21 0
8 *346:15 *357:21 0
9 *346:15 *749:25 0.00366546
10 *346:17 *397:9 0
11 *346:21 *742:13 0
12 *114:19 *346:15 0.000450127
13 *128:17 *346:15 0.00015391
14 *185:11 *346:15 0
15 *214:21 gpio_dm2[43] 0
16 *214:21 *346:21 0.0415871
17 *265:7 *346:15 2.66249e-05
18 *265:9 *346:15 2.54141e-06
19 *331:9 *346:17 0
*RES
1 *874:gpio_dm2[43] *346:15 49.303 
2 *346:15 *346:17 197.096 
3 *346:17 *346:19 0.5 
4 *346:19 *346:21 859.073 
5 *346:21 gpio_dm2[43] 21.52 
*END

*D_NET *347 0.534678
*CONN
*P gpio_dm2[4] O
*I *874:gpio_dm2[4] O *D counter_gpio_config_example
*CAP
1 gpio_dm2[4] 0.00015971
2 *874:gpio_dm2[4] 0.000177559
3 *347:21 0.0862979
4 *347:19 0.0862275
5 *347:9 0.0310176
6 *347:7 0.0311059
7 gpio_dm2[4] gpio_holdover[4] 5.06141e-05
8 *347:7 *569:19 5.75686e-05
9 *347:9 *389:9 0.000101454
10 *347:9 *391:9 0.0487983
11 *347:9 *434:9 0.00030782
12 *347:19 *425:17 2.08692e-05
13 *347:19 *557:17 4.12356e-05
14 *347:21 *391:21 0.115048
15 *347:21 *557:17 0.000119689
16 gpio_analog_sel[4] gpio_dm2[4] 5.73169e-05
17 *102:7 *347:7 6.11634e-05
18 *127:21 *347:21 0
19 *129:9 *347:9 0.0593475
20 *139:9 *347:9 0.00727798
21 *139:9 *347:19 0.000206495
22 *143:9 *347:19 0.000209741
23 *147:9 *347:9 0.00536771
24 *148:17 *347:21 0.0510768
25 *302:9 *347:9 0.00107504
26 *338:17 *347:21 0.00803555
27 *342:19 *347:9 0.00213513
28 *344:19 *347:9 0.00029583
*RES
1 *874:gpio_dm2[4] *347:7 0.985133 
2 *347:7 *347:9 120.625 
3 *347:9 *347:19 5.59463 
4 *347:19 *347:21 2224.67 
5 *347:21 gpio_dm2[4] 3.03122 
*END

*D_NET *348 0.387892
*CONN
*P gpio_dm2[5] O
*I *874:gpio_dm2[5] O *D counter_gpio_config_example
*CAP
1 gpio_dm2[5] 0.00232968
2 *874:gpio_dm2[5] 0.000134897
3 *348:13 0.0352596
4 *348:11 0.0329299
5 *348:9 0.112036
6 *348:7 0.112171
7 gpio_dm2[5] gpio_holdover[5] 0.00163751
8 gpio_dm2[5] gpio_out[5] 0
9 gpio_dm2[5] *392:17 0.00254827
10 *348:7 *387:7 4.53772e-05
11 *348:7 *387:9 6.8512e-06
12 *348:9 *387:9 0.0140012
13 *348:13 gpio_ib_mode_sel[4] 0.0115607
14 *348:13 *483:11 0.00118736
15 *348:13 *484:11 0.0249936
16 *348:13 *700:13 0.00837045
17 gpio_analog_pol[4] *348:13 0.000140197
18 *89:13 *348:13 0.01725
19 *188:13 *348:13 0.00433128
20 *275:7 *348:7 4.53772e-05
21 *275:7 *348:9 6.8512e-06
22 *275:9 *348:9 0.00690648
*RES
1 *874:gpio_dm2[5] *348:7 0.449667 
2 *348:7 *348:9 293.003 
3 *348:9 *348:11 0.5 
4 *348:11 *348:13 100.039 
5 *348:13 gpio_dm2[5] 7.1443 
*END

*D_NET *349 0.592309
*CONN
*P gpio_dm2[6] O
*I *874:gpio_dm2[6] O *D counter_gpio_config_example
*CAP
1 gpio_dm2[6] 0.00244162
2 *874:gpio_dm2[6] 0.00269965
3 *349:13 0.106926
4 *349:11 0.104484
5 *349:9 0.0136984
6 *349:7 0.016398
7 gpio_dm2[6] *393:13 0.000547866
8 *349:7 *366:7 0.000691897
9 *349:9 *529:9 0.000448027
10 *349:13 *393:13 0
11 *102:9 *349:9 0.0261135
12 *168:9 *349:9 0.00660868
13 *173:9 *349:9 0.0560167
14 *205:21 *349:9 0.00499401
15 *207:7 *349:7 0.000691897
16 *217:13 gpio_dm2[6] 0.000544
17 *217:13 *349:13 0.249005
*RES
1 *874:gpio_dm2[6] *349:7 6.8992 
2 *349:7 *349:9 666.165 
3 *349:9 *349:11 0.5 
4 *349:11 *349:13 376.878 
5 *349:13 gpio_dm2[6] 5.87037 
*END

*D_NET *350 0.65847
*CONN
*P gpio_dm2[7] O
*I *874:gpio_dm2[7] O *D counter_gpio_config_example
*CAP
1 gpio_dm2[7] 7.31597e-05
2 *874:gpio_dm2[7] 0.00310114
3 *350:19 0.135705
4 *350:17 0.135632
5 *350:15 0.114737
6 *350:13 0.117838
7 *350:13 *352:15 4.19178e-05
8 *350:13 *379:11 0
9 *350:15 *535:9 0.00629332
10 *350:19 gpio_holdover[7] 0.00113557
11 *350:19 *394:17 0.124817
12 *218:17 *350:19 0
13 *316:9 *350:13 0.00145626
14 *317:9 *350:15 0.00678184
15 *322:9 *350:15 0.00560723
16 *323:9 *350:15 0.00525148
*RES
1 *874:gpio_dm2[7] *350:13 6.15567 
2 *350:13 *350:15 224.699 
3 *350:15 *350:17 0.5 
4 *350:17 *350:19 377.877 
5 *350:19 gpio_dm2[7] 0.193167 
*END

*D_NET *351 0.585088
*CONN
*P gpio_dm2[8] O
*I *874:gpio_dm2[8] O *D counter_gpio_config_example
*CAP
1 gpio_dm2[8] 0.00476313
2 *874:gpio_dm2[8] 0.000189641
3 *351:13 0.057797
4 *351:11 0.0530339
5 *351:9 0.0826983
6 *351:7 0.082888
7 gpio_dm2[8] gpio_holdover[8] 0.00164223
8 gpio_dm2[8] gpio_out[8] 6.17086e-06
9 gpio_dm2[8] *395:13 1.6271e-05
10 gpio_dm2[8] *747:9 0.0082309
11 *351:9 *479:7 0.181138
12 *134:13 *351:13 0.109188
13 *216:7 *351:7 3.19771e-05
14 *216:9 *351:7 3.48706e-06
15 *216:9 *351:9 0.000408484
16 *258:11 *351:7 3.19771e-05
17 *258:11 *351:9 0.00155982
18 *303:13 *351:13 0.00146027
*RES
1 *874:gpio_dm2[8] *351:7 0.449667 
2 *351:7 *351:9 284.379 
3 *351:9 *351:11 0.5 
4 *351:11 *351:13 204.691 
5 *351:13 gpio_dm2[8] 15.9704 
*END

*D_NET *352 0.824949
*CONN
*P gpio_dm2[9] O
*I *874:gpio_dm2[9] O *D counter_gpio_config_example
*CAP
1 gpio_dm2[9] 0.00225319
2 *874:gpio_dm2[9] 0.000904612
3 *352:21 0.110852
4 *352:19 0.108599
5 *352:17 0.0548458
6 *352:15 0.0549729
7 *352:9 0.0329526
8 *352:7 0.0337301
9 gpio_dm2[9] gpio_holdover[9] 0
10 *352:7 *359:7 0.000209432
11 *352:15 *379:11 1.80966e-05
12 *352:17 *359:9 0.0357757
13 *352:17 *535:9 0
14 *352:21 gpio_holdover[9] 0
15 *162:7 *352:7 0.000225836
16 *220:21 gpio_dm2[9] 0.00170752
17 *220:21 *352:21 0.240973
18 *311:9 *352:17 0.145811
19 *317:9 *352:9 0.000318962
20 *322:9 *352:9 0.000208883
21 *323:9 *352:9 0.00054941
22 *350:13 *352:15 4.19178e-05
*RES
1 *874:gpio_dm2[9] *352:7 2.73313 
2 *352:7 *352:9 60.3313 
3 *352:9 *352:15 1.24193 
4 *352:15 *352:17 1685.66 
5 *352:17 *352:19 0.5 
6 *352:19 *352:21 372.508 
7 *352:21 gpio_dm2[9] 5.62717 
*END

*D_NET *353 0.298997
*CONN
*P gpio_holdover[0] O
*I *874:gpio_holdover[0] O *D counter_gpio_config_example
*CAP
1 gpio_holdover[0] 0.0041168
2 *874:gpio_holdover[0] 0.000128671
3 *353:15 0.0196891
4 *353:9 0.113254
5 *353:7 0.0978106
6 gpio_holdover[0] *705:45 0.00385592
7 *353:7 *437:7 4.7387e-05
8 *353:9 *430:17 0.00113545
9 *353:9 *437:7 8.0017e-06
10 *353:9 *437:9 0.0399614
11 gpio_analog_sel[0] gpio_holdover[0] 0
12 gpio_analog_sel[2] *353:15 0.00928963
13 gpio_dm2[0] gpio_holdover[0] 0
14 *92:13 *353:15 0.000748113
15 *100:13 *353:15 0
16 *177:17 gpio_holdover[0] 0
17 *209:7 *353:7 4.7387e-05
18 *209:9 *353:7 8.0017e-06
19 *209:9 *353:9 0.00889643
*RES
1 *874:gpio_holdover[0] *353:7 0.449667 
2 *353:7 *353:9 289.623 
3 *353:9 *353:15 48.9281 
4 *353:15 gpio_holdover[0] 10.5836 
*END

*D_NET *354 0.767735
*CONN
*P gpio_holdover[10] O
*I *874:gpio_holdover[10] O *D counter_gpio_config_example
*CAP
1 gpio_holdover[10] 0.00145076
2 *874:gpio_holdover[10] 0.00732294
3 *354:21 0.122173
4 *354:19 0.120722
5 *354:17 0.0919576
6 *354:15 0.0992805
7 gpio_holdover[10] *706:17 0
8 *354:15 *377:7 0
9 *354:17 *373:9 0.00464027
10 *354:17 *823:10 0
11 *178:21 *354:21 0
12 *193:7 *354:15 0.00114889
13 *291:9 *354:15 0.00218302
14 *307:7 *354:15 9.83877e-05
15 *307:17 *354:17 0.126107
16 *310:17 gpio_holdover[10] 0.000395146
17 *310:17 *354:21 0.190219
18 *342:19 *354:15 3.62288e-05
*RES
1 *874:gpio_holdover[10] *354:15 19.5095 
2 *354:15 *354:17 2137 
3 *354:17 *354:19 0.5 
4 *354:19 *354:21 386.346 
5 *354:21 gpio_holdover[10] 6.57277 
*END

*D_NET *355 0.542205
*CONN
*P gpio_holdover[11] O
*I *874:gpio_holdover[11] O *D counter_gpio_config_example
*CAP
1 gpio_holdover[11] 0.00125581
2 *874:gpio_holdover[11] 0.0203479
3 *355:17 0.0985658
4 *355:15 0.09731
5 *355:13 0.136733
6 *355:11 0.157081
7 gpio_holdover[11] gpio_out[11] 0.000275998
8 *355:11 *370:11 0.000113673
9 *355:11 *409:11 0
10 *355:11 *771:19 0
11 *355:11 *771:21 0
12 *355:17 gpio_out[11] 0
13 *355:17 *707:19 0.02979
14 gpio_dm2[11] gpio_holdover[11] 0.000272132
15 gpio_dm2[11] *355:17 0.000408902
16 *237:7 *355:11 3.23114e-05
17 *287:15 *355:13 1.86715e-05
18 *311:13 *355:17 0
*RES
1 *874:gpio_holdover[11] *355:11 47.4845 
2 *355:11 *355:13 345.26 
3 *355:13 *355:15 0.5 
4 *355:15 *355:17 250.468 
5 *355:17 gpio_holdover[11] 3.0609 
*END

*D_NET *356 0.532859
*CONN
*P gpio_holdover[12] O
*I *874:gpio_holdover[12] O *D counter_gpio_config_example
*CAP
1 gpio_holdover[12] 0.0134384
2 *874:gpio_holdover[12] 0.000179091
3 *356:20 0
4 *356:13 0.145567
5 *356:11 0.132129
6 *356:9 0.112961
7 *356:7 0.11314
8 gpio_holdover[12] gpio_out[12] 0.0116347
9 gpio_holdover[12] *796:17 0
10 *356:7 *401:11 3.68451e-05
11 *356:7 *541:11 3.25733e-05
12 *356:9 *401:11 0.00157243
13 *356:9 *541:11 0.0021691
14 gpio_dm2[12] gpio_holdover[12] 0
15 *100:9 *356:9 0
16 *257:9 *356:9 0
17 *312:17 gpio_holdover[12] 0
*RES
1 *874:gpio_holdover[12] *356:7 0.449667 
2 *356:7 *356:9 263.287 
3 *356:9 *356:11 0.5 
4 *356:11 *356:13 335.355 
5 *356:13 gpio_holdover[12] 36.8179 
6 gpio_holdover[12] *356:20 0.0506667 
*END

*D_NET *357 0.683157
*CONN
*P gpio_holdover[13] O
*I *874:gpio_holdover[13] O *D counter_gpio_config_example
*CAP
1 gpio_holdover[13] 0.00126697
2 *874:gpio_holdover[13] 0.0110087
3 *357:25 0.122903
4 *357:23 0.121636
5 *357:21 0.0889251
6 *357:19 0.0999338
7 gpio_holdover[13] gpio_out[13] 0
8 *357:19 gpio_slow_sel[3] 0.000561728
9 *357:19 *376:13 0.00624413
10 *357:19 *419:15 0.000753624
11 *357:19 *561:11 0
12 *357:19 *683:13 0.000103095
13 *357:21 *674:13 0.205929
14 *357:21 *749:25 0
15 *357:25 gpio_out[13] 0
16 gpio_dm2[13] gpio_holdover[13] 0.000858335
17 gpio_dm2[13] *357:25 0.0189309
18 *109:13 *357:19 0
19 *128:15 *357:19 0.000244392
20 *153:13 *357:19 0
21 *239:13 *357:19 0.00107504
22 *243:15 *357:19 4.88751e-05
23 *273:7 *357:19 2.92693e-05
24 *273:9 *357:19 0.000787467
25 *281:13 *357:19 0.00029583
26 *286:15 *357:19 0.00162142
27 *346:15 *357:21 0
*RES
1 *874:gpio_holdover[13] *357:19 34.661 
2 *357:19 *357:21 2380.27 
3 *357:21 *357:23 0.5 
4 *357:23 *357:25 290.206 
5 *357:25 gpio_holdover[13] 5.52237 
*END

*D_NET *358 0.652228
*CONN
*P gpio_holdover[14] O
*I *874:gpio_holdover[14] O *D counter_gpio_config_example
*CAP
1 gpio_holdover[14] 9.27789e-05
2 *874:gpio_holdover[14] 0.000168882
3 *358:17 0.0813699
4 *358:15 0.0812771
5 *358:13 0.196875
6 *358:11 0.196875
7 *358:9 0.0466947
8 *358:7 0.0468636
9 *358:9 *546:11 0
10 *358:17 gpio_out[14] 0.00170021
11 gpio_dm2[14] *358:17 0.000271408
12 *182:17 *358:17 0
13 *218:13 *358:13 0
14 *234:11 *358:7 3.91044e-05
15 *287:11 *358:7 0
16 *287:11 *358:9 0
*RES
1 *874:gpio_holdover[14] *358:7 0.449667 
2 *358:7 *358:9 106.899 
3 *358:9 *358:11 0.5 
4 *358:11 *358:13 498.492 
5 *358:13 *358:15 0.5 
6 *358:15 *358:17 192.706 
7 *358:17 gpio_holdover[14] 0.266633 
*END

*D_NET *359 0.723013
*CONN
*P gpio_holdover[15] O
*I *874:gpio_holdover[15] O *D counter_gpio_config_example
*CAP
1 gpio_holdover[15] 8.04425e-05
2 *874:gpio_holdover[15] 0.000884144
3 *359:17 0.141683
4 *359:15 0.141602
5 *359:13 0.14499
6 *359:11 0.14499
7 *359:9 0.0195396
8 *359:7 0.0204238
9 gpio_holdover[15] gpio_out[15] 0
10 *359:9 *535:9 0.00106896
11 *359:9 *663:9 0.00136902
12 *359:13 *536:13 0
13 *359:13 *684:11 0
14 *359:13 *685:11 0.00943815
15 *359:13 *812:11 0
16 gpio_dm2[15] gpio_holdover[15] 0
17 gpio_dm2[15] *359:17 0
18 *164:7 *359:7 0.000126587
19 *220:7 *359:7 0
20 *300:9 *359:9 0.0110159
21 *311:9 *359:9 0.00420604
22 *324:9 *359:9 0.0456094
23 *352:7 *359:7 0.000209432
24 *352:17 *359:9 0.0357757
*RES
1 *874:gpio_holdover[15] *359:7 2.58747 
2 *359:7 *359:9 768.675 
3 *359:9 *359:11 0.5 
4 *359:11 *359:13 349.347 
5 *359:13 *359:15 0.5 
6 *359:15 *359:17 2572.54 
7 *359:17 gpio_holdover[15] 1.35 
*END

*D_NET *360 0.675827
*CONN
*P gpio_holdover[16] O
*I *874:gpio_holdover[16] O *D counter_gpio_config_example
*CAP
1 gpio_holdover[16] 0.146998
2 *874:gpio_holdover[16] 0.000577739
3 *360:15 0.146998
4 *360:13 0.10568
5 *360:11 0.10568
6 *360:9 0.00750308
7 *360:7 0.00808082
8 gpio_holdover[16] gpio_out[16] 0
9 *360:7 *395:7 0.000152571
10 *360:9 *663:9 0
11 *360:13 *543:19 0
12 *360:13 *665:28 0
13 *360:13 *750:11 0.000385535
14 gpio_dm2[16] gpio_holdover[16] 0
15 *143:13 *360:13 0.0853089
16 *154:7 *360:7 0.000152571
17 *229:9 *360:9 0.0347887
18 *271:9 *360:9 0.0335194
19 *290:17 *360:13 0
20 *322:13 *360:13 0
*RES
1 *874:gpio_holdover[16] *360:7 1.88827 
2 *360:7 *360:9 403.005 
3 *360:9 *360:11 0.5 
4 *360:11 *360:13 284.146 
5 *360:13 *360:15 0.5 
6 *360:15 gpio_holdover[16] 2620.43 
*END

*D_NET *361 0.996905
*CONN
*P gpio_holdover[17] O
*I *874:gpio_holdover[17] O *D counter_gpio_config_example
*CAP
1 gpio_holdover[17] 0.00100023
2 *874:gpio_holdover[17] 0.00673706
3 *361:13 0.0733196
4 *361:11 0.0723193
5 *361:9 0.101168
6 *361:7 0.107905
7 gpio_holdover[17] gpio_out[17] 0
8 *361:7 *413:7 0.00156607
9 *361:9 *365:9 0.25834
10 *361:9 *413:17 0.0560285
11 *361:9 *414:9 0
12 *361:9 *464:11 0
13 *361:13 gpio_holdover[19] 0
14 *361:13 gpio_inp_dis[20] 0.00168098
15 *361:13 *365:13 0.00334913
16 *361:13 *673:19 0.0315236
17 *361:13 *676:9 0
18 gpio_dm2[17] gpio_holdover[17] 0
19 *96:13 *361:13 0.069494
20 *123:7 *361:7 0.000473757
21 *159:9 *361:9 0.00261925
22 *274:13 *361:13 0.131829
23 *279:15 *361:13 0.0312199
24 *316:15 *361:13 0.037955
25 *336:7 *361:7 0
26 *336:9 *361:9 0.00837677
*RES
1 *874:gpio_holdover[17] *361:7 15.5809 
2 *361:7 *361:9 2916.79 
3 *361:9 *361:11 0.5 
4 *361:11 *361:13 265.268 
5 *361:13 gpio_holdover[17] 17.8925 
*END

*D_NET *362 0.462549
*CONN
*P gpio_holdover[18] O
*I *874:gpio_holdover[18] O *D counter_gpio_config_example
*CAP
1 gpio_holdover[18] 0.163963
2 *874:gpio_holdover[18] 0.000128976
3 *362:11 0.163963
4 *362:9 0.0485774
5 *362:7 0.0487064
6 gpio_holdover[18] gpio_out[18] 0
7 gpio_holdover[18] *714:21 0.0354602
8 *362:9 *815:21 0
9 gpio_dm2[18] gpio_holdover[18] 0
10 *169:11 *362:7 5.42305e-05
11 *169:11 *362:9 0.000816309
12 *214:11 *362:7 4.7387e-05
13 *214:11 *362:9 0.000831324
*RES
1 *874:gpio_holdover[18] *362:7 0.449667 
2 *362:7 *362:9 117.766 
3 *362:9 *362:11 0.5 
4 *362:11 gpio_holdover[18] 2972.33 
*END

*D_NET *363 0.413104
*CONN
*P gpio_holdover[19] O
*I *874:gpio_holdover[19] O *D counter_gpio_config_example
*CAP
1 gpio_holdover[19] 0.00653721
2 *874:gpio_holdover[19] 0.0150868
3 *363:13 0.157625
4 *363:11 0.166175
5 gpio_holdover[19] gpio_out[19] 0
6 gpio_holdover[19] *538:13 0
7 *363:11 *390:11 0
8 gpio_dm2[19] gpio_holdover[19] 0
9 *172:7 *363:11 4.71514e-05
10 *172:9 *363:11 0.00556651
11 *213:11 *363:11 0.0012032
12 *308:13 *363:13 0.0608638
13 *361:13 gpio_holdover[19] 0
*RES
1 *874:gpio_holdover[19] *363:11 42.3279 
2 *363:11 *363:13 2740.84 
3 *363:13 gpio_holdover[19] 35.4169 
*END

*D_NET *364 0.377969
*CONN
*P gpio_holdover[1] O
*I *874:gpio_holdover[1] O *D counter_gpio_config_example
*CAP
1 gpio_holdover[1] 5.04664e-05
2 *874:gpio_holdover[1] 0.000178393
3 *364:17 0.0606604
4 *364:15 0.0804147
5 *364:9 0.0532992
6 *364:7 0.0336728
7 gpio_analog_sel[1] *364:17 0.00104759
8 gpio_dm2[1] *364:17 0.00164173
9 *104:11 *364:7 2.85284e-05
10 *104:11 *364:9 0.000257649
11 *131:9 *364:17 0
12 *238:11 *364:7 3.98266e-05
13 *238:11 *364:9 0.000343641
14 *254:15 *364:9 0
15 *269:11 *364:9 0
16 *320:17 *364:17 0.146334
*RES
1 *874:gpio_holdover[1] *364:7 0.41157 
2 *364:7 *364:9 76.2508 
3 *364:9 *364:15 49.7895 
4 *364:15 *364:17 223.354 
5 *364:17 gpio_holdover[1] 0.145033 
*END

*D_NET *365 0.743426
*CONN
*P gpio_holdover[20] O
*I *874:gpio_holdover[20] O *D counter_gpio_config_example
*CAP
1 gpio_holdover[20] 0.0009596
2 *874:gpio_holdover[20] 0.0053956
3 *365:13 0.0179968
4 *365:11 0.0170372
5 *365:9 0.116033
6 *365:7 0.121429
7 gpio_holdover[20] gpio_out[20] 0
8 gpio_holdover[20] *717:13 0
9 *365:7 *414:7 0.00183994
10 *365:9 *413:17 0.0549368
11 *365:9 *414:9 0
12 *365:9 *810:21 0
13 *365:13 *366:13 0.00166742
14 gpio_analog_en[37] *365:9 0.00346321
15 gpio_dm2[20] gpio_holdover[20] 0
16 *101:17 *365:13 0.0672313
17 *159:9 *365:9 0.000988881
18 *248:7 *365:7 0.00175556
19 *274:13 *365:13 0.0660768
20 *321:13 gpio_holdover[20] 0
21 *336:9 *365:9 0.00492547
22 *361:9 *365:9 0.25834
23 *361:13 *365:13 0.00334913
*RES
1 *874:gpio_holdover[20] *365:7 15.5227 
2 *365:7 *365:9 3185.56 
3 *365:9 *365:11 0.5 
4 *365:11 *365:13 111.677 
5 *365:13 gpio_holdover[20] 17.255 
*END

*D_NET *366 0.650886
*CONN
*P gpio_holdover[21] O
*I *874:gpio_holdover[21] O *D counter_gpio_config_example
*CAP
1 gpio_holdover[21] 0.00089813
2 *874:gpio_holdover[21] 0.00635363
3 *366:13 0.0241774
4 *366:11 0.0232793
5 *366:9 0.0970405
6 *366:7 0.103394
7 gpio_holdover[21] gpio_out[21] 0
8 *366:9 *373:17 0.0384345
9 *366:9 *413:9 0.0214839
10 *366:9 *810:21 0
11 *366:13 gpio_oeb[22] 0.000658714
12 gpio_dm2[21] gpio_holdover[21] 0
13 *101:17 *366:13 0.000904176
14 *157:9 *366:9 0.0019654
15 *161:9 *366:9 0.00338629
16 *183:21 *366:13 0.00958237
17 *184:21 *366:13 0.000112235
18 *189:13 *366:13 0.0444537
19 *206:11 *366:9 0.00178564
20 *207:7 *366:7 0
21 *248:9 *366:9 0.00330132
22 *272:21 *366:13 0.000128225
23 *280:9 *366:9 0.262192
24 *289:7 *366:7 0.00137223
25 *289:9 *366:9 0.00362335
26 *322:17 gpio_holdover[21] 0
27 *349:7 *366:7 0.000691897
28 *365:13 *366:13 0.00166742
*RES
1 *874:gpio_holdover[21] *366:7 14.7069 
2 *366:7 *366:9 2960.15 
3 *366:9 *366:11 0.5 
4 *366:11 *366:13 78.2901 
5 *366:13 gpio_holdover[21] 15.725 
*END

*D_NET *367 0.388626
*CONN
*P gpio_holdover[22] O
*I *874:gpio_holdover[22] O *D counter_gpio_config_example
*CAP
1 gpio_holdover[22] 0.14465
2 *874:gpio_holdover[22] 0.00153775
3 *367:27 0.152109
4 *367:23 0.00791885
5 *367:17 0.00156127
6 *367:15 0.00263925
7 gpio_holdover[22] gpio_out[22] 0
8 gpio_holdover[22] *768:5 0
9 gpio_holdover[22] *791:5 0.00183847
10 gpio_holdover[22] *835:13 0.00445336
11 *367:15 *423:11 0.000325956
12 *367:15 *705:41 0.000259454
13 *367:17 *410:15 0.00299614
14 *367:17 *705:41 0.00064437
15 *367:27 *544:17 0.030943
16 *367:27 *743:17 0.000867377
17 gpio_dm2[22] gpio_holdover[22] 0
18 *104:13 *367:15 0.000622708
19 *104:13 *367:17 0.00157282
20 *104:13 *367:23 1.2778e-05
21 *104:27 *367:27 0.00207258
22 *106:13 *367:17 0
23 *106:13 *367:23 0
24 *114:19 *367:17 0.00175057
25 *114:19 *367:23 0.000245263
26 *117:15 *367:17 0.000158482
27 *142:13 *367:27 0
28 *147:23 *367:27 0.00177293
29 *235:19 *367:27 0.027296
30 *278:23 *367:17 5.07624e-05
31 *331:7 *367:15 4.31109e-05
32 *331:9 *367:15 0.000282846
*RES
1 *874:gpio_holdover[22] *367:15 11.1371 
2 *367:15 *367:17 51.855 
3 *367:17 *367:23 9.23 
4 *367:23 *367:27 47.9088 
5 *367:27 gpio_holdover[22] 2635.22 
*END

*D_NET *368 0.611796
*CONN
*P gpio_holdover[23] O
*I *874:gpio_holdover[23] O *D counter_gpio_config_example
*CAP
1 gpio_holdover[23] 0.00153812
2 *874:gpio_holdover[23] 0.0131005
3 *368:65 0.00453142
4 *368:63 0.0029933
5 *368:61 0.0322628
6 *368:59 0.0322628
7 *368:57 0.158614
8 *368:55 0.168059
9 *368:31 0.0225452
10 gpio_holdover[23] gpio_out[23] 0.00232292
11 *368:31 *370:13 0.000106321
12 *368:31 *378:15 0.0129272
13 *368:31 *422:13 0.000103095
14 *368:31 *549:13 0.000103095
15 *368:31 *551:7 5.46561e-05
16 *368:31 *551:9 7.38179e-05
17 *368:55 *370:13 0.000212642
18 *368:55 *378:15 0.00413142
19 *368:55 *378:19 0.00244723
20 *368:55 *378:21 0.00691698
21 *368:55 *556:13 0.00570656
22 *368:57 *370:13 0.0271952
23 *368:57 *378:21 0.0202059
24 *368:57 *546:13 0.0555222
25 *368:57 *549:13 0.0120042
26 *368:61 *453:15 0
27 *368:61 *762:19 0
28 *368:61 *805:25 0
29 gpio_dm1[36] *368:31 2.50034e-05
30 gpio_dm2[23] gpio_holdover[23] 0
31 *94:11 *368:31 2.95326e-05
32 *104:27 *368:55 0.000118519
33 *122:193 *368:31 0.00033184
34 *160:17 *368:31 0.00776505
35 *160:17 *368:55 0.0031227
36 *160:17 *368:57 0.00330126
37 *165:7 *368:31 3.7719e-05
38 *165:9 *368:31 8.16197e-05
39 *171:9 *368:55 7.84487e-05
40 *172:9 *368:55 0.000126031
41 *195:9 *368:57 0
42 *200:13 *368:57 0.0104093
43 *237:9 *368:57 0
44 *293:11 *368:31 0.000162623
45 *324:17 *368:65 0
46 *334:13 *368:57 0.000162272
47 *335:13 *368:31 0.000103095
*RES
1 *874:gpio_holdover[23] *368:31 48.7631 
2 *368:31 *368:55 34.4957 
3 *368:55 *368:57 429.499 
4 *368:57 *368:59 0.5 
5 *368:59 *368:61 77.7366 
6 *368:61 *368:63 0.5 
7 *368:63 *368:65 54.72 
8 *368:65 gpio_holdover[23] 36.0975 
*END

*D_NET *369 0.647721
*CONN
*P gpio_holdover[24] O
*I *874:gpio_holdover[24] O *D counter_gpio_config_example
*CAP
1 gpio_holdover[24] 0.00974929
2 *874:gpio_holdover[24] 0.00171687
3 *369:9 0.0726548
4 *369:7 0.0646224
5 gpio_holdover[24] gpio_out[24] 0
6 *369:7 *418:7 0.000400535
7 *369:9 *778:13 0.0167938
8 gpio_dm2[24] gpio_holdover[24] 0.000152599
9 *93:17 *369:9 0
10 *99:9 *369:9 0
11 *105:17 *369:9 0.0168501
12 *194:9 *369:9 0.187621
13 *244:9 *369:9 0.024799
14 *259:15 *369:7 0.000400535
15 *316:11 *369:9 0.25196
*RES
1 *874:gpio_holdover[24] *369:7 4.56853 
2 *369:7 *369:9 3081.01 
3 *369:9 gpio_holdover[24] 26.8022 
*END

*D_NET *370 0.557256
*CONN
*P gpio_holdover[25] O
*I *874:gpio_holdover[25] O *D counter_gpio_config_example
*CAP
1 gpio_holdover[25] 0.000668611
2 *874:gpio_holdover[25] 0.000474286
3 *370:17 0.0420405
4 *370:15 0.0413718
5 *370:13 0.0439942
6 *370:11 0.0444685
7 gpio_holdover[25] *546:21 0
8 *370:11 *533:11 7.69582e-05
9 *370:11 *771:19 7.02834e-05
10 *370:13 *378:19 0.000106321
11 *370:13 *378:21 0.00592742
12 *370:13 *546:13 0.192047
13 *370:13 *549:13 0.152601
14 *370:17 gpio_vtrip_sel[25] 0.00195976
15 *370:17 *722:17 0
16 *370:17 *796:17 0.00360916
17 gpio_dm2[25] gpio_holdover[25] 0.000212182
18 *355:11 *370:11 0.000113673
19 *368:31 *370:13 0.000106321
20 *368:55 *370:13 0.000212642
21 *368:57 *370:13 0.0271952
*RES
1 *874:gpio_holdover[25] *370:11 1.73617 
2 *370:11 *370:13 2224.73 
3 *370:13 *370:15 0.5 
4 *370:15 *370:17 102.005 
5 *370:17 gpio_holdover[25] 10.57 
*END

*D_NET *371 0.478779
*CONN
*P gpio_holdover[26] O
*I *874:gpio_holdover[26] O *D counter_gpio_config_example
*CAP
1 gpio_holdover[26] 0.00139137
2 *874:gpio_holdover[26] 0.0100634
3 *371:9 0.228814
4 *371:7 0.237486
5 gpio_holdover[26] *723:9 0
6 *371:7 *439:7 0.000288391
7 gpio_dm2[26] gpio_holdover[26] 0.000227869
8 *93:15 *371:7 0.000402533
9 *195:13 gpio_holdover[26] 0.00010643
*RES
1 *874:gpio_holdover[26] *371:7 23.1265 
2 *371:7 *371:9 410.463 
3 *371:9 gpio_holdover[26] 3.5799 
*END

*D_NET *372 0.373869
*CONN
*P gpio_holdover[27] O
*I *874:gpio_holdover[27] O *D counter_gpio_config_example
*CAP
1 gpio_holdover[27] 0.00229077
2 *874:gpio_holdover[27] 0.00165302
3 *372:29 0.0446733
4 *372:27 0.0423826
5 *372:25 0.0752793
6 *372:23 0.0772406
7 *372:13 0.00849775
8 *372:11 0.00818946
9 gpio_holdover[27] gpio_out[27] 0.000384197
10 gpio_holdover[27] *724:17 0
11 *372:11 *556:11 0.000169523
12 *372:13 *738:21 0
13 *372:23 *410:19 0.00065882
14 *372:23 *545:18 2.88663e-05
15 *372:23 *705:39 2.50034e-05
16 *372:25 *545:18 0.0101756
17 *372:29 *724:17 0
18 gpio_analog_sel[27] gpio_holdover[27] 0
19 gpio_analog_sel[27] *372:29 0
20 gpio_dm2[27] gpio_holdover[27] 0
21 *103:13 *372:13 0.0102451
22 *110:6 *372:23 0.000409262
23 *110:6 *372:25 0.0628838
24 *176:13 *372:23 8.69542e-05
25 *205:17 *372:23 0.00246501
26 *237:9 *372:25 0.00327431
27 *238:13 *372:13 0.0182196
28 *239:11 *372:11 0.000457658
29 *318:9 *372:11 0
30 *330:13 *372:13 0.00417883
*RES
1 *874:gpio_holdover[27] *372:11 4.5128 
2 *372:11 *372:13 260.205 
3 *372:13 *372:23 6.0806 
4 *372:23 *372:25 260.594 
5 *372:25 *372:27 0.5 
6 *372:27 *372:29 96.6441 
7 *372:29 gpio_holdover[27] 4.8355 
*END

*D_NET *373 0.350506
*CONN
*P gpio_holdover[28] O
*I *874:gpio_holdover[28] O *D counter_gpio_config_example
*CAP
1 gpio_holdover[28] 0.00385616
2 *874:gpio_holdover[28] 0.00566188
3 *373:17 0.0610719
4 *373:15 0.0574831
5 *373:9 0.0261973
6 *373:7 0.0315919
7 *373:7 gpio_oeb[37] 0.00222031
8 *373:7 *434:7 5.18158e-05
9 *373:15 *467:15 0
10 *373:17 *413:17 0
11 gpio_analog_sel[28] gpio_holdover[28] 0
12 gpio_dm0[33] *373:15 0
13 gpio_dm1[33] *373:15 0.000328937
14 gpio_dm2[28] gpio_holdover[28] 0.00666298
15 *107:7 *373:7 0
16 *242:9 *373:17 0.0330149
17 *280:9 *373:17 0.0204775
18 *289:9 *373:17 0.0070294
19 *307:17 *373:9 0.0508301
20 *314:7 *373:7 0.000953049
21 *354:17 *373:9 0.00464027
22 *366:9 *373:17 0.0384345
*RES
1 *874:gpio_holdover[28] *373:7 13.8912 
2 *373:7 *373:9 682.485 
3 *373:9 *373:15 1.76633 
4 *373:15 *373:17 186.344 
5 *373:17 gpio_holdover[28] 11.9754 
*END

*D_NET *374 0.483142
*CONN
*P gpio_holdover[29] O
*I *874:gpio_holdover[29] O *D counter_gpio_config_example
*CAP
1 gpio_holdover[29] 0.0079663
2 *874:gpio_holdover[29] 0.00394224
3 *374:9 0.0696448
4 *374:7 0.0656207
5 gpio_holdover[29] gpio_out[29] 0.000139574
6 gpio_holdover[29] gpio_vtrip_sel[29] 0
7 *374:7 *537:7 0
8 *374:9 *418:9 0
9 *374:9 *440:9 0.0584755
10 gpio_dm2[29] gpio_holdover[29] 0.000658677
11 *107:9 *374:9 0.145891
12 *162:9 *374:9 0.025893
13 *178:15 *374:9 0.00764011
14 *178:17 *374:9 0.0216591
15 *193:9 *374:9 0.00136297
16 *229:7 *374:7 0.000160475
17 *241:19 *374:9 0.0286852
18 *268:17 *374:9 0.0201589
19 *284:9 *374:9 0.00074203
20 *304:9 *374:9 0.0112993
21 *327:7 *374:7 0.00104845
22 *330:33 gpio_holdover[29] 8.24893e-06
23 *333:9 *374:9 0.0121447
*RES
1 *874:gpio_holdover[29] *374:7 9.6086 
2 *374:7 *374:9 291.169 
3 *374:9 gpio_holdover[29] 17.7818 
*END

*D_NET *375 0.479396
*CONN
*P gpio_holdover[2] O
*I *874:gpio_holdover[2] O *D counter_gpio_config_example
*CAP
1 gpio_holdover[2] 0.00207327
2 *874:gpio_holdover[2] 0.0635983
3 *375:19 0.0811472
4 *375:17 0.142672
5 gpio_holdover[2] gpio_out[2] 0.000269635
6 gpio_holdover[2] *727:29 0.000826057
7 *375:17 *400:13 0
8 *375:17 *540:13 0
9 *375:17 *717:13 0.0015003
10 *375:19 *727:29 0.177599
11 gpio_dm2[2] gpio_holdover[2] 0.00163962
12 gpio_dm2[2] *375:19 0
13 *222:9 *375:17 0.00174612
14 *298:16 *375:17 0.0063248
*RES
1 *874:gpio_holdover[2] *375:17 39.1523 
2 *375:17 *375:19 274.124 
3 *375:19 gpio_holdover[2] 5.63477 
*END

*D_NET *376 0.371484
*CONN
*P gpio_holdover[30] O
*I *874:gpio_holdover[30] O *D counter_gpio_config_example
*CAP
1 gpio_holdover[30] 0.00116129
2 *874:gpio_holdover[30] 0.00218514
3 *376:17 0.0438891
4 *376:15 0.0427278
5 *376:13 0.0540801
6 *376:11 0.0562652
7 gpio_holdover[30] gpio_out[30] 0.000491622
8 gpio_holdover[30] *462:15 0.000182889
9 *376:11 *683:17 0.000388916
10 *376:17 gpio_out[30] 0.0151605
11 gpio_dm2[30] gpio_holdover[30] 0
12 *128:17 *376:13 0.0307289
13 *177:11 *376:11 0.000846895
14 *239:13 *376:13 0.000274836
15 *239:21 *376:13 0.109294
16 *243:15 *376:13 0.00626
17 *281:13 *376:13 0.000542219
18 *286:15 *376:13 0
19 *312:7 *376:11 5.42305e-05
20 *312:9 *376:11 0.000706402
21 *357:19 *376:13 0.00624413
*RES
1 *874:gpio_holdover[30] *376:11 7.16393 
2 *376:11 *376:13 232.598 
3 *376:13 *376:15 0.5 
4 *376:15 *376:17 105.53 
5 *376:17 gpio_holdover[30] 5.64857 
*END

*D_NET *377 0.331959
*CONN
*P gpio_holdover[31] O
*I *874:gpio_holdover[31] O *D counter_gpio_config_example
*CAP
1 gpio_holdover[31] 0.00792563
2 *874:gpio_holdover[31] 0.00204153
3 *377:17 0.0426492
4 *377:15 0.0348279
5 *377:9 0.0113616
6 *377:7 0.0132988
7 gpio_holdover[31] gpio_out[31] 0.000178718
8 *377:7 *417:7 0.000574283
9 *377:9 *471:11 0.014139
10 *377:15 *822:8 7.64782e-05
11 gpio_analog_en[35] *377:17 0.000365038
12 gpio_dm2[31] gpio_holdover[31] 0.00858631
13 *105:17 *377:17 0
14 *115:9 *377:9 0.00827038
15 *115:9 *377:17 0.00885748
16 *123:9 *377:9 0
17 *154:9 *377:9 0.0328817
18 *154:17 *377:17 0.080107
19 *174:9 *377:17 5.49868e-05
20 *204:9 *377:9 0.00218942
21 *204:9 *377:17 0.00931308
22 *205:17 *377:15 0.000221742
23 *241:17 gpio_holdover[31] 5.11552e-05
24 *283:9 *377:9 0.053797
25 *309:9 *377:9 0.00015391
26 *342:19 *377:7 3.62288e-05
27 *354:15 *377:7 0
*RES
1 *874:gpio_holdover[31] *377:7 5.326 
2 *377:7 *377:9 650.355 
3 *377:9 *377:15 1.35847 
4 *377:15 *377:17 152.149 
5 *377:17 gpio_holdover[31] 21.1258 
*END

*D_NET *378 0.324018
*CONN
*P gpio_holdover[32] O
*I *874:gpio_holdover[32] O *D counter_gpio_config_example
*CAP
1 gpio_holdover[32] 0.00491403
2 *874:gpio_holdover[32] 0.0238502
3 *378:25 0.0466788
4 *378:23 0.0417647
5 *378:21 0.0199461
6 *378:19 0.0223134
7 *378:15 0.0262175
8 gpio_holdover[32] gpio_out[32] 0
9 gpio_holdover[32] *413:17 0.000344865
10 *378:15 *422:13 0.00138217
11 *378:15 *463:11 0.000103095
12 *378:15 *546:13 0.000956887
13 *378:15 *555:11 0.000148654
14 *378:15 *556:13 0.00393176
15 *378:19 *556:13 0.000338198
16 *378:21 *422:13 0.00825822
17 *378:21 *546:13 0.0160912
18 *378:21 *549:13 0.00592742
19 *160:17 *378:15 0
20 *160:17 *378:19 0.000176679
21 *176:11 *378:21 0.000302532
22 *275:7 *378:15 4.53772e-05
23 *275:9 *378:15 0.000107915
24 *334:13 *378:19 0.000374174
25 *334:13 *378:21 0.0455745
26 *334:17 gpio_holdover[32] 0.00160703
27 *334:17 *378:25 0
28 *368:31 *378:15 0.0129272
29 *368:55 *378:15 0.00413142
30 *368:55 *378:19 0.00244723
31 *368:55 *378:21 0.00691698
32 *368:57 *378:21 0.0202059
33 *370:13 *378:19 0.000106321
34 *370:13 *378:21 0.00592742
*RES
1 *874:gpio_holdover[32] *378:15 49.4681 
2 *378:15 *378:19 6.31053 
3 *378:19 *378:21 86.5868 
4 *378:21 *378:23 0.5 
5 *378:23 *378:25 91.9245 
6 *378:25 gpio_holdover[32] 11.3132 
*END

*D_NET *379 0.183018
*CONN
*P gpio_holdover[33] O
*I *874:gpio_holdover[33] O *D counter_gpio_config_example
*CAP
1 gpio_holdover[33] 0.00580818
2 *874:gpio_holdover[33] 0.00533397
3 *379:13 0.0349816
4 *379:11 0.0345074
5 gpio_holdover[33] gpio_out[33] 0.00423186
6 gpio_holdover[33] *462:15 9.45007e-05
7 *379:11 *396:15 4.12303e-05
8 *379:11 *421:7 0.000789196
9 *379:13 *396:15 5.79754e-05
10 *379:13 *396:17 0.0128545
11 gpio_analog_sel[33] gpio_holdover[33] 0
12 gpio_dm2[33] gpio_holdover[33] 0
13 *150:9 *379:13 0
14 *152:9 *379:13 0.018364
15 *152:15 gpio_holdover[33] 0
16 *201:9 *379:13 0.0539019
17 *203:17 gpio_holdover[33] 0
18 *220:17 *379:13 0.0106096
19 *316:9 *379:11 0
20 *335:17 gpio_holdover[33] 0.00142421
21 *350:13 *379:11 0
22 *352:15 *379:11 1.80966e-05
*RES
1 *874:gpio_holdover[33] *379:11 11.5187 
2 *379:11 *379:13 101.589 
3 *379:13 gpio_holdover[33] 17.5888 
*END

*D_NET *380 0.115967
*CONN
*P gpio_holdover[34] O
*I *874:gpio_holdover[34] O *D counter_gpio_config_example
*CAP
1 gpio_holdover[34] 7.86748e-05
2 *874:gpio_holdover[34] 0.00101381
3 *380:17 0.0429042
4 *380:15 0.0428255
5 *380:13 0.00556251
6 *380:11 0.00657631
7 *380:11 *410:15 0.000194187
8 *380:13 *562:13 0
9 *380:17 gpio_out[34] 0
10 *380:17 *535:13 0
11 *380:17 *773:11 0.0014655
12 *380:17 *788:9 0.00530359
13 gpio_analog_sel[34] *380:17 0
14 gpio_dm2[34] *380:17 0.0016487
15 *146:13 *380:13 0.00330426
16 *283:15 *380:17 0
17 *292:13 *380:13 0.00490009
18 *321:11 *380:11 0.00018965
*RES
1 *874:gpio_holdover[34] *380:11 2.7648 
2 *380:11 *380:13 136.785 
3 *380:13 *380:15 0.5 
4 *380:15 *380:17 103.355 
5 *380:17 gpio_holdover[34] 0.2261 
*END

*D_NET *381 0.175113
*CONN
*P gpio_holdover[35] O
*I *874:gpio_holdover[35] O *D counter_gpio_config_example
*CAP
1 gpio_holdover[35] 0.000249076
2 *874:gpio_holdover[35] 0.000688418
3 *381:21 0.00170903
4 *381:19 0.00145995
5 *381:17 0.0279454
6 *381:15 0.0279454
7 *381:13 0.00406525
8 *381:11 0.00475367
9 gpio_holdover[35] gpio_out[35] 0.000212114
10 *381:13 *556:13 0.000164905
11 *381:13 *557:13 0.00227832
12 *381:17 *391:19 3.92756e-05
13 *381:17 *427:17 0.00416632
14 *381:17 *542:19 0.0003344
15 *381:17 *742:9 0.00766196
16 *381:17 *829:16 0.000357098
17 *381:21 *425:21 0.00573783
18 *381:21 *427:21 1.74869e-05
19 *381:21 *726:21 0
20 gpio_dm2[35] gpio_holdover[35] 0
21 *89:7 *381:11 3.65739e-05
22 *89:9 *381:11 0.000140525
23 *104:27 *381:17 0.000313722
24 *113:13 *381:13 0
25 *117:17 *381:17 0.0299136
26 *154:15 *381:17 0.000139604
27 *190:27 *381:17 0.00933412
28 *215:33 *381:17 0.00340904
29 *290:13 *381:13 0.0201944
30 *293:13 *381:13 0.0159848
31 *297:7 *381:11 3.98266e-05
32 *297:9 *381:11 0.000110083
33 *337:21 *381:21 0.00555995
34 *338:17 *381:17 6.17086e-06
35 *338:21 *381:21 0.000144995
*RES
1 *874:gpio_holdover[35] *381:11 2.18213 
2 *381:11 *381:13 231.135 
3 *381:13 *381:15 0.5 
4 *381:15 *381:17 102.179 
5 *381:17 *381:19 0.5 
6 *381:19 *381:21 71.505 
7 *381:21 gpio_holdover[35] 1.1308 
*END

*D_NET *382 0.0825835
*CONN
*P gpio_holdover[36] O
*I *874:gpio_holdover[36] O *D counter_gpio_config_example
*CAP
1 gpio_holdover[36] 0.00164099
2 *874:gpio_holdover[36] 0.00366969
3 *382:24 1.42862e-06
4 *382:15 0.00855576
5 *382:9 0.0291505
6 *382:7 0.025904
7 gpio_holdover[36] gpio_out[36] 0.000444805
8 gpio_holdover[36] *427:21 0.0032253
9 gpio_holdover[36] *726:21 0
10 *382:7 *383:7 0.00140124
11 *382:7 *417:7 0.00143256
12 *382:9 *383:11 0.00388781
13 *382:9 *396:17 0
14 *382:24 gpio_out[36] 2.60489e-05
15 gpio_dm2[36] gpio_holdover[36] 7.99115e-05
16 *220:17 *382:9 0
17 *272:9 *382:9 0
18 *288:9 *382:9 0.00316339
19 *306:9 *382:9 0
*RES
1 *874:gpio_holdover[36] *382:7 11.5605 
2 *382:7 *382:9 393.825 
3 *382:9 *382:15 14.7307 
4 *382:15 gpio_holdover[36] 38.5823 
5 gpio_holdover[36] *382:24 0.0506667 
*END

*D_NET *383 0.0830684
*CONN
*P gpio_holdover[37] O
*I *874:gpio_holdover[37] O *D counter_gpio_config_example
*CAP
1 gpio_holdover[37] 0.00558459
2 *874:gpio_holdover[37] 0.00427974
3 *383:11 0.0180332
4 *383:7 0.0167283
5 gpio_holdover[37] gpio_out[37] 0.00723782
6 gpio_dm2[37] gpio_holdover[37] 7.27101e-05
7 *150:9 *383:11 0
8 *155:7 *383:7 0.000130569
9 *201:9 *383:11 0.00583515
10 *220:15 *383:11 0.0186245
11 *220:17 *383:11 0.00103038
12 *288:9 *383:11 0.000222457
13 *328:7 *383:7 0
14 *382:7 *383:7 0.00140124
15 *382:9 *383:11 0.00388781
*RES
1 *874:gpio_holdover[37] *383:7 11.3566 
2 *383:7 *383:11 46.1025 
3 *383:11 gpio_holdover[37] 15.0372 
*END

*D_NET *384 0.176754
*CONN
*P gpio_holdover[38] O
*I *874:gpio_holdover[38] O *D counter_gpio_config_example
*CAP
1 gpio_holdover[38] 0.000114574
2 *874:gpio_holdover[38] 0.000458949
3 *384:21 0.00370297
4 *384:19 0.00471341
5 *384:13 0.0301399
6 *384:11 0.0290149
7 *384:9 0.0120522
8 *384:7 0.0125112
9 *384:9 *434:9 0
10 *384:9 *461:21 1.83114e-05
11 *384:13 *475:11 0.00643731
12 *384:13 *560:15 0
13 *384:21 gpio_out[38] 0
14 gpio_dm2[38] *384:21 0
15 *155:9 *384:9 0.00148148
16 *164:9 *384:9 0.0127884
17 *208:40 *384:19 0.00251697
18 *208:40 *384:21 0
19 *212:9 *384:9 0.00212081
20 *219:7 *384:7 0.000111118
21 *223:9 *384:9 0.0378299
22 *228:9 *384:9 0.00718111
23 *260:7 *384:7 0.000138627
24 *264:9 *384:9 0.0134215
25 *302:9 *384:9 0
*RES
1 *874:gpio_holdover[38] *384:7 1.6552 
2 *384:7 *384:9 540.195 
3 *384:9 *384:11 0.5 
4 *384:11 *384:13 73.6288 
5 *384:13 *384:19 31.205 
6 *384:19 *384:21 62.1 
7 *384:21 gpio_holdover[38] 2.1075 
*END

*D_NET *385 0.136354
*CONN
*P gpio_holdover[39] O
*I *874:gpio_holdover[39] O *D counter_gpio_config_example
*CAP
1 gpio_holdover[39] 0.00117625
2 *874:gpio_holdover[39] 0.000139989
3 *385:13 0.0166425
4 *385:11 0.0154663
5 *385:9 0.0258984
6 *385:7 0.0260384
7 gpio_holdover[39] *737:17 0
8 *385:7 *546:11 4.48666e-05
9 *385:9 *546:11 0.00010056
10 *385:13 *737:13 0.0047634
11 *385:13 *737:17 0
12 *170:17 *385:9 0
13 *221:11 *385:7 4.99499e-05
14 *221:11 *385:9 0.0036021
15 *341:13 gpio_holdover[39] 0.00126294
16 *341:13 *385:13 0.0411682
*RES
1 *874:gpio_holdover[39] *385:7 0.449667 
2 *385:7 *385:9 65.5006 
3 *385:9 *385:11 0.5 
4 *385:11 *385:13 467.145 
5 *385:13 gpio_holdover[39] 28.2375 
*END

*D_NET *386 0.290079
*CONN
*P gpio_holdover[3] O
*I *874:gpio_holdover[3] O *D counter_gpio_config_example
*CAP
1 gpio_holdover[3] 0.00985366
2 *874:gpio_holdover[3] 0.000166664
3 *386:9 0.134513
4 *386:7 0.124826
5 gpio_holdover[3] gpio_out[3] 0.000566434
6 gpio_holdover[3] *738:25 0.00462927
7 gpio_dm2[3] gpio_holdover[3] 0
8 *181:9 *386:9 0
9 *231:7 *386:7 0
10 *231:9 *386:9 0
11 *277:11 *386:7 3.80212e-05
12 *277:11 *386:9 0.00273061
13 *331:15 gpio_holdover[3] 0.0127558
*RES
1 *874:gpio_holdover[3] *386:7 0.449667 
2 *386:7 *386:9 289.74 
3 *386:9 gpio_holdover[3] 34.927 
*END

*D_NET *387 0.14376
*CONN
*P gpio_holdover[40] O
*I *874:gpio_holdover[40] O *D counter_gpio_config_example
*CAP
1 gpio_holdover[40] 5.99375e-05
2 *874:gpio_holdover[40] 0.000143463
3 *387:13 0.0284382
4 *387:11 0.0283783
5 *387:9 0.0336357
6 *387:7 0.0337792
7 *387:13 gpio_out[40] 0
8 gpio_dm2[40] *387:13 0
9 *287:11 *387:7 4.1647e-05
10 *287:11 *387:9 0.00523057
11 *348:7 *387:7 4.53772e-05
12 *348:7 *387:9 6.8512e-06
13 *348:9 *387:9 0.0140012
*RES
1 *874:gpio_holdover[40] *387:7 0.449667 
2 *387:7 *387:9 100.402 
3 *387:9 *387:11 0.5 
4 *387:11 *387:13 508.215 
5 *387:13 gpio_holdover[40] 1.1025 
*END

*D_NET *388 0.247967
*CONN
*P gpio_holdover[41] O
*I *874:gpio_holdover[41] O *D counter_gpio_config_example
*CAP
1 gpio_holdover[41] 0.000109682
2 *874:gpio_holdover[41] 0.00585012
3 *388:25 0.00370035
4 *388:23 0.00373268
5 *388:21 0.00491166
6 *388:19 0.00476965
7 *388:17 0.0391978
8 *388:15 0.0391978
9 *388:13 0.0398231
10 *388:11 0.0456732
11 *388:11 *539:7 3.19771e-05
12 *388:11 *539:9 0.00146552
13 *388:13 *398:13 0.00101432
14 *388:17 *477:11 0
15 *388:17 *695:14 0.056992
16 *388:25 *740:22 0
17 gpio_dm2[41] *388:25 0
18 *308:11 *388:11 0.00149749
*RES
1 *874:gpio_holdover[41] *388:11 15.2339 
2 *388:11 *388:13 710.025 
3 *388:13 *388:15 0.5 
4 *388:15 *388:17 120.3 
5 *388:17 *388:19 0.5 
6 *388:19 *388:21 85.65 
7 *388:21 *388:23 2.52 
8 *388:23 *388:25 62.1 
9 *388:25 gpio_holdover[41] 2.0175 
*END

*D_NET *389 0.375006
*CONN
*P gpio_holdover[42] O
*I *874:gpio_holdover[42] O *D counter_gpio_config_example
*CAP
1 gpio_holdover[42] 0.000103158
2 *874:gpio_holdover[42] 0.00019527
3 *389:21 0.00367613
4 *389:19 0.00365773
5 *389:17 0.00559539
6 *389:15 0.00551064
7 *389:13 0.0657345
8 *389:11 0.0657345
9 *389:9 0.00427657
10 *389:7 0.00447184
11 *389:7 *391:7 4.33362e-05
12 *389:13 *564:10 0
13 *389:13 *711:19 0.0370537
14 *389:13 *714:19 0.000216381
15 *389:13 *715:9 0.058853
16 *389:13 *717:9 0.0395133
17 *389:13 *756:9 0.0469966
18 *389:13 *832:9 0
19 *389:13 *833:9 0.00033093
20 gpio_dm2[42] *389:21 0
21 *125:7 *389:7 4.33362e-05
22 *139:9 *389:9 0.00203372
23 *141:9 *389:9 0.00370479
24 *296:9 *389:9 0.00344348
25 *301:9 *389:9 0.00231521
26 *340:9 *389:9 0.00128029
27 *342:19 *389:9 0.000337631
28 *344:19 *389:9 0.0197835
29 *347:9 *389:9 0.000101454
*RES
1 *874:gpio_holdover[42] *389:7 0.956 
2 *389:7 *389:9 225.525 
3 *389:9 *389:11 0.5 
4 *389:11 *389:13 245.982 
5 *389:13 *389:15 0.5 
6 *389:15 *389:17 95.85 
7 *389:17 *389:19 1.485 
8 *389:19 *389:21 62.1 
9 *389:21 gpio_holdover[42] 1.8975 
*END

*D_NET *390 0.286842
*CONN
*P gpio_holdover[43] O
*I *874:gpio_holdover[43] O *D counter_gpio_config_example
*CAP
1 gpio_holdover[43] 9.66339e-05
2 *874:gpio_holdover[43] 0.00665058
3 *390:21 0.00555117
4 *390:19 0.00545454
5 *390:17 0.0718534
6 *390:15 0.0718534
7 *390:13 0.035659
8 *390:11 0.0423095
9 *390:13 *409:13 0.00957157
10 *390:17 *475:11 0
11 gpio_dm2[43] *390:21 0
12 *130:13 *390:13 0.00425281
13 *187:13 *390:13 0.00380355
14 *213:11 *390:11 0.00103134
15 *213:17 *390:17 0
16 *253:19 *390:17 0.0270279
17 *257:7 *390:11 3.25733e-05
18 *257:9 *390:11 0.00169421
19 *258:17 *390:17 0
20 *363:11 *390:11 0
*RES
1 *874:gpio_holdover[43] *390:11 17.0984 
2 *390:11 *390:13 711.045 
3 *390:13 *390:15 0.5 
4 *390:15 *390:17 188.298 
5 *390:17 *390:19 0.5 
6 *390:19 *390:21 95.625 
7 *390:21 gpio_holdover[43] 1.7775 
*END

*D_NET *391 0.537826
*CONN
*P gpio_holdover[4] O
*I *874:gpio_holdover[4] O *D counter_gpio_config_example
*CAP
1 gpio_holdover[4] 0.000286097
2 *874:gpio_holdover[4] 0.000281052
3 *391:21 0.0491443
4 *391:19 0.0488997
5 *391:9 0.0269023
6 *391:7 0.0271419
7 gpio_holdover[4] *743:17 0
8 *391:9 *434:9 0.000356277
9 *391:9 *532:19 0.0055532
10 *391:21 *427:17 0.0034262
11 gpio_analog_sel[4] gpio_holdover[4] 5.04569e-05
12 gpio_dm2[4] gpio_holdover[4] 5.06141e-05
13 *103:17 *391:21 0
14 *117:17 *391:19 3.92756e-05
15 *122:193 *391:9 0.000146401
16 *129:9 *391:9 0.000141443
17 *142:9 *391:9 0.00496623
18 *142:9 *391:19 6.28345e-05
19 *143:9 *391:9 0.0066873
20 *143:9 *391:19 6.02846e-05
21 *148:17 *391:21 0.0510756
22 *190:9 *391:9 0.0047428
23 *191:7 *391:7 5.4423e-05
24 *215:35 *391:21 0.123032
25 *234:17 *391:21 0.00578548
26 *266:15 *391:9 0.0141133
27 *302:9 *391:9 0.000401495
28 *344:19 *391:9 0.000496193
29 *347:9 *391:9 0.0487983
30 *347:21 *391:21 0.115048
31 *381:17 *391:19 3.92756e-05
32 *389:7 *391:7 4.33362e-05
*RES
1 *874:gpio_holdover[4] *391:7 1.10167 
2 *391:7 *391:9 93.6649 
3 *391:9 *391:19 3.80963 
4 *391:19 *391:21 2225.35 
5 *391:21 gpio_holdover[4] 4.93622 
*END

*D_NET *392 0.456553
*CONN
*P gpio_holdover[5] O
*I *874:gpio_holdover[5] O *D counter_gpio_config_example
*CAP
1 gpio_holdover[5] 0.00102582
2 *874:gpio_holdover[5] 0.00367159
3 *392:17 0.166157
4 *392:15 0.165131
5 *392:13 0.042387
6 *392:11 0.0460586
7 gpio_holdover[5] gpio_out[5] 0.000265664
8 *392:11 *393:7 0.000367449
9 *392:11 *428:9 0
10 *392:11 *569:19 0.000270533
11 *392:13 *426:9 0.00322909
12 gpio_dm2[5] gpio_holdover[5] 0.00163751
13 gpio_dm2[5] *392:17 0.00254827
14 *93:17 *392:13 0.00254069
15 *105:7 *392:11 0
16 *127:9 *392:13 0.0157803
17 *133:9 *392:11 0.000855724
18 *133:9 *392:13 0.00462725
19 *216:17 *392:17 0
20 *244:9 *392:13 0
*RES
1 *874:gpio_holdover[5] *392:11 8.87647 
2 *392:11 *392:13 114.547 
3 *392:13 *392:15 0.5 
4 *392:15 *392:17 376.586 
5 *392:17 gpio_holdover[5] 5.0529 
*END

*D_NET *393 0.592015
*CONN
*P gpio_holdover[6] O
*I *874:gpio_holdover[6] O *D counter_gpio_config_example
*CAP
1 gpio_holdover[6] 9.10159e-05
2 *874:gpio_holdover[6] 0.00479687
3 *393:13 0.118176
4 *393:11 0.118085
5 *393:9 0.0337788
6 *393:7 0.0385757
7 *393:7 *569:19 0
8 *393:9 *735:13 0
9 *393:13 gpio_out[6] 0.000797845
10 *393:13 *745:9 0.208199
11 gpio_dm2[6] *393:13 0.000547866
12 *161:7 *393:7 0
13 *217:13 *393:13 0
14 *219:9 *393:9 0.0558172
15 *272:7 *393:7 0.00127649
16 *306:9 *393:9 0.0115063
17 *349:13 *393:13 0
18 *392:11 *393:7 0.000367449
*RES
1 *874:gpio_holdover[6] *393:7 12.1432 
2 *393:7 *393:9 879.855 
3 *393:9 *393:11 0.5 
4 *393:11 *393:13 387.287 
5 *393:13 gpio_holdover[6] 0.261567 
*END

*D_NET *394 0.519982
*CONN
*P gpio_holdover[7] O
*I *874:gpio_holdover[7] O *D counter_gpio_config_example
*CAP
1 gpio_holdover[7] 0.00244801
2 *874:gpio_holdover[7] 0.000147348
3 *394:17 0.0582987
4 *394:15 0.0558507
5 *394:13 0.092435
6 *394:11 0.092435
7 *394:9 0.0318645
8 *394:7 0.0320118
9 gpio_holdover[7] gpio_out[7] 0
10 *394:7 *557:11 4.41342e-05
11 *394:9 *463:7 0.016866
12 *394:9 *557:11 0.0001027
13 *394:17 gpio_out[7] 0
14 *312:13 *394:13 0
15 *345:7 *394:7 3.80212e-05
16 *345:7 *394:9 6.11296e-06
17 *345:9 *394:9 0.0114821
18 *350:19 gpio_holdover[7] 0.00113557
19 *350:19 *394:17 0.124817
*RES
1 *874:gpio_holdover[7] *394:7 0.449667 
2 *394:7 *394:9 101.655 
3 *394:9 *394:11 0.5 
4 *394:11 *394:13 233.029 
5 *394:13 *394:15 0.5 
6 *394:15 *394:17 192.784 
7 *394:17 gpio_holdover[7] 5.75637 
*END

*D_NET *395 0.718072
*CONN
*P gpio_holdover[8] O
*I *874:gpio_holdover[8] O *D counter_gpio_config_example
*CAP
1 gpio_holdover[8] 0.000844173
2 *874:gpio_holdover[8] 0.0053956
3 *395:13 0.112977
4 *395:11 0.112133
5 *395:9 0.0545366
6 *395:7 0.0599322
7 gpio_holdover[8] gpio_out[8] 0.000668063
8 *395:9 *823:10 0
9 *395:13 *747:9 0.230053
10 gpio_dm2[8] gpio_holdover[8] 0.00164223
11 gpio_dm2[8] *395:13 1.6271e-05
12 *154:7 *395:7 0
13 *219:13 *395:13 0
14 *279:9 *395:9 0.137918
15 *295:24 *395:7 0.000862575
16 *333:7 *395:7 0.000939818
17 *360:7 *395:7 0.000152571
*RES
1 *874:gpio_holdover[8] *395:7 12.9589 
2 *395:7 *395:9 1557.65 
3 *395:9 *395:11 0.5 
4 *395:11 *395:13 385.53 
5 *395:13 gpio_holdover[8] 5.36023 
*END

*D_NET *396 0.711446
*CONN
*P gpio_holdover[9] O
*I *874:gpio_holdover[9] O *D counter_gpio_config_example
*CAP
1 gpio_holdover[9] 0.161928
2 *874:gpio_holdover[9] 0.00593493
3 *396:19 0.161928
4 *396:17 0.048193
5 *396:15 0.0541279
6 gpio_holdover[9] *748:17 0.0329269
7 gpio_holdover[9] *836:17 0
8 *396:15 gpio_inp_dis[37] 0.00103109
9 gpio_dm2[9] gpio_holdover[9] 0
10 *150:9 *396:15 0.000249785
11 *151:7 *396:15 0.000534011
12 *152:9 *396:17 0.0461247
13 *152:17 *396:17 0.00657361
14 *201:9 *396:15 0.00114327
15 *201:9 *396:17 0.0237883
16 *220:17 *396:15 0.000380362
17 *220:17 *396:17 0.149441
18 *220:21 gpio_holdover[9] 0
19 *272:9 *396:17 0.000255788
20 *288:9 *396:17 0.00393263
21 *352:21 gpio_holdover[9] 0
22 *379:11 *396:15 4.12303e-05
23 *379:13 *396:15 5.79754e-05
24 *379:13 *396:17 0.0128545
25 *382:9 *396:17 0
*RES
1 *874:gpio_holdover[9] *396:15 16.2212 
2 *396:15 *396:17 1692.8 
3 *396:17 *396:19 0.5 
4 *396:19 gpio_holdover[9] 386.413 
*END

*D_NET *397 0.419901
*CONN
*P gpio_ib_mode_sel[0] O
*I *874:gpio_ib_mode_sel[0] O *D counter_gpio_config_example
*CAP
1 gpio_ib_mode_sel[0] 0.00229451
2 *874:gpio_ib_mode_sel[0] 0.000206177
3 *397:17 0.0625694
4 *397:15 0.0602749
5 *397:13 0.0404588
6 *397:11 0.0404588
7 *397:9 0.0314699
8 *397:7 0.0316761
9 gpio_ib_mode_sel[0] *661:29 0.0016978
10 gpio_ib_mode_sel[0] *793:19 0
11 *397:7 *423:11 3.19771e-05
12 *397:9 *423:11 0.000513404
13 *397:17 *661:29 0.148249
14 *397:17 *793:19 0
15 *113:11 *397:7 0
16 *113:11 *397:9 0
17 *346:17 *397:9 0
*RES
1 *874:gpio_ib_mode_sel[0] *397:7 0.449667 
2 *397:7 *397:9 71.0068 
3 *397:9 *397:11 0.5 
4 *397:11 *397:13 100.383 
5 *397:13 *397:15 0.5 
6 *397:15 *397:17 223.432 
7 *397:17 gpio_ib_mode_sel[0] 5.65377 
*END

*D_NET *398 0.592952
*CONN
*P gpio_ib_mode_sel[10] O
*I *874:gpio_ib_mode_sel[10] O *D counter_gpio_config_example
*CAP
1 gpio_ib_mode_sel[10] 4.64997e-05
2 *874:gpio_ib_mode_sel[10] 0.00625415
3 *398:17 0.0778803
4 *398:15 0.0778338
5 *398:13 0.116536
6 *398:11 0.122791
7 *398:11 *826:22 0.00110581
8 *398:13 *401:13 0
9 *398:17 gpio_oeb[10] 0.00164223
10 *398:17 *662:31 0.187387
11 *240:11 *398:11 0.000430562
12 *253:11 *398:11 0
13 *294:11 *398:11 2.95379e-05
14 *388:13 *398:13 0.00101432
*RES
1 *874:gpio_ib_mode_sel[10] *398:11 15.2047 
2 *398:11 *398:13 283.847 
3 *398:13 *398:15 0.5 
4 *398:15 *398:17 285.35 
5 *398:17 gpio_ib_mode_sel[10] 0.133633 
*END

*D_NET *399 0.526571
*CONN
*P gpio_ib_mode_sel[11] O
*I *874:gpio_ib_mode_sel[11] O *D counter_gpio_config_example
*CAP
1 gpio_ib_mode_sel[11] 0.0126474
2 *874:gpio_ib_mode_sel[11] 0.000149414
3 *399:13 0.141121
4 *399:11 0.128474
5 *399:9 0.0846851
6 *399:7 0.0848345
7 gpio_ib_mode_sel[11] *663:13 0
8 gpio_ib_mode_sel[11] *795:9 0.0246373
9 *136:7 *399:7 4.34109e-05
10 *136:7 *399:9 5.68526e-06
11 *136:9 *399:9 0.0364106
12 *167:7 *399:7 4.34109e-05
13 *167:9 *399:7 5.68526e-06
14 *167:9 *399:9 0.0135141
*RES
1 *874:gpio_ib_mode_sel[11] *399:7 0.449667 
2 *399:7 *399:9 258.975 
3 *399:9 *399:11 0.5 
4 *399:11 *399:13 326.053 
5 *399:13 gpio_ib_mode_sel[11] 41.6166 
*END

*D_NET *400 0.655347
*CONN
*P gpio_ib_mode_sel[12] O
*I *874:gpio_ib_mode_sel[12] O *D counter_gpio_config_example
*CAP
1 gpio_ib_mode_sel[12] 7.95563e-05
2 *874:gpio_ib_mode_sel[12] 0.00725043
3 *400:17 0.113513
4 *400:15 0.113433
5 *400:13 0.156114
6 *400:11 0.163365
7 *400:11 *533:11 0.000511133
8 *400:11 *771:19 0
9 *400:11 *771:21 0.00140133
10 *400:13 *436:13 0
11 *400:17 gpio_oeb[12] 0.0248492
12 *400:17 *796:17 0
13 *145:13 *400:13 0.0684903
14 *211:13 *400:13 0.00418398
15 *345:7 *400:11 3.80212e-05
16 *345:9 *400:11 0.00211842
17 *375:17 *400:13 0
*RES
1 *874:gpio_ib_mode_sel[12] *400:11 20.4487 
2 *400:11 *400:13 377.13 
3 *400:13 *400:15 0.5 
4 *400:15 *400:17 280.106 
5 *400:17 gpio_ib_mode_sel[12] 0.228633 
*END

*D_NET *401 0.734747
*CONN
*P gpio_ib_mode_sel[13] O
*I *874:gpio_ib_mode_sel[13] O *D counter_gpio_config_example
*CAP
1 gpio_ib_mode_sel[13] 0.0013092
2 *874:gpio_ib_mode_sel[13] 0.00595876
3 *401:17 0.093147
4 *401:15 0.0918378
5 *401:13 0.157364
6 *401:11 0.163323
7 gpio_ib_mode_sel[13] *665:34 0.000271408
8 gpio_ib_mode_sel[13] *797:17 0.000399076
9 *401:17 gpio_out[13] 0
10 *401:17 *665:34 0
11 *401:17 *797:17 0.11559
12 *98:13 *401:13 0.101491
13 *100:7 *401:11 3.25733e-05
14 *100:9 *401:11 0.00157827
15 *130:13 *401:13 0
16 *258:13 *401:13 0.000835534
17 *356:7 *401:11 3.68451e-05
18 *356:9 *401:11 0.00157243
19 *398:13 *401:13 0
*RES
1 *874:gpio_ib_mode_sel[13] *401:11 16.0205 
2 *401:11 *401:13 393.495 
3 *401:13 *401:15 0.5 
4 *401:15 *401:17 281.961 
5 *401:17 gpio_ib_mode_sel[13] 6.57023 
*END

*D_NET *402 1.07029
*CONN
*P gpio_ib_mode_sel[14] O
*I *874:gpio_ib_mode_sel[14] O *D counter_gpio_config_example
*CAP
1 gpio_ib_mode_sel[14] 0.000966069
2 *874:gpio_ib_mode_sel[14] 0.00239918
3 *402:13 0.103582
4 *402:11 0.102616
5 *402:9 0.0595894
6 *402:7 0.0619886
7 gpio_ib_mode_sel[14] gpio_oeb[14] 0.000488523
8 gpio_ib_mode_sel[14] gpio_vtrip_sel[14] 0.00167422
9 *402:7 *431:7 0.000323774
10 *402:9 *779:18 0.00542685
11 *402:13 *666:21 0.249099
12 gpio_analog_en[24] *402:13 0
13 *91:17 *402:9 0.151297
14 *99:9 *402:9 0.00102149
15 *105:17 *402:9 0.061563
16 *115:9 *402:9 0.000103095
17 *123:9 *402:9 0.00449795
18 *189:9 *402:9 0.247954
19 *227:17 *402:13 0
20 *281:25 *402:13 0.000692747
21 *283:9 *402:9 0.0150119
22 *289:7 *402:7 0
23 *316:9 *402:7 0
*RES
1 *874:gpio_ib_mode_sel[14] *402:7 5.1512 
2 *402:7 *402:9 2869.88 
3 *402:9 *402:11 0.5 
4 *402:11 *402:13 377.664 
5 *402:13 gpio_ib_mode_sel[14] 5.51223 
*END

*D_NET *403 0.56945
*CONN
*P gpio_ib_mode_sel[15] O
*I *874:gpio_ib_mode_sel[15] O *D counter_gpio_config_example
*CAP
1 gpio_ib_mode_sel[15] 8.17048e-05
2 *874:gpio_ib_mode_sel[15] 0.000147588
3 *403:21 0.00522684
4 *403:19 0.00514513
5 *403:17 0.0835385
6 *403:15 0.0835385
7 *403:13 0.166264
8 *403:11 0.166264
9 *403:9 0.0256915
10 *403:7 0.0258391
11 gpio_ib_mode_sel[15] gpio_oeb[15] 0
12 gpio_ib_mode_sel[15] gpio_vtrip_sel[15] 0
13 *403:21 *667:13 0
14 *403:21 *799:13 0
15 *186:17 *403:17 0
16 *262:7 *403:7 3.80212e-05
17 *262:9 *403:7 6.11296e-06
18 *262:9 *403:9 0.00752984
19 *335:11 *403:7 3.14976e-05
20 *335:11 *403:9 0.000108267
*RES
1 *874:gpio_ib_mode_sel[15] *403:7 0.449667 
2 *403:7 *403:9 66.7242 
3 *403:9 *403:11 0.5 
4 *403:11 *403:13 3012.68 
5 *403:13 *403:15 0.5 
6 *403:15 *403:17 202.573 
7 *403:17 *403:19 0.5 
8 *403:19 *403:21 93.945 
9 *403:21 gpio_ib_mode_sel[15] 1.35 
*END

*D_NET *404 0.833069
*CONN
*P gpio_ib_mode_sel[16] O
*I *874:gpio_ib_mode_sel[16] O *D counter_gpio_config_example
*CAP
1 gpio_ib_mode_sel[16] 0.00110347
2 *874:gpio_ib_mode_sel[16] 0.000254227
3 *404:19 0.172729
4 *404:17 0.171626
5 *404:15 0.0308722
6 *404:13 0.0308722
7 *404:11 0.00134199
8 *404:9 0.00159621
9 gpio_ib_mode_sel[16] gpio_oeb[16] 0
10 gpio_ib_mode_sel[16] gpio_vtrip_sel[16] 0
11 *404:11 *428:11 0.00191463
12 *404:15 *457:23 0.0200247
13 *404:15 *484:15 0.141597
14 *404:15 *669:9 0.125393
15 *404:19 *742:13 0.067841
16 *133:13 *404:15 0.0472201
17 *162:7 *404:9 0
18 *301:9 *404:11 0.00264886
19 *340:7 *404:9 0.000110108
20 *342:19 *404:11 0.000407838
21 *342:21 *404:15 0.0155162
*RES
1 *874:gpio_ib_mode_sel[16] *404:9 1.0472 
2 *404:9 *404:11 53.2725 
3 *404:11 *404:13 2 
4 *404:13 *404:15 1653.69 
5 *404:15 *404:17 2 
6 *404:17 *404:19 3395.94 
7 *404:19 gpio_ib_mode_sel[16] 23.215 
*END

*D_NET *405 0.487636
*CONN
*P gpio_ib_mode_sel[17] O
*I *874:gpio_ib_mode_sel[17] O *D counter_gpio_config_example
*CAP
1 gpio_ib_mode_sel[17] 0.172096
2 *874:gpio_ib_mode_sel[17] 0.00013264
3 *405:11 0.172096
4 *405:9 0.0715407
5 *405:7 0.0716734
6 gpio_ib_mode_sel[17] gpio_oeb[17] 0
7 gpio_ib_mode_sel[17] gpio_vtrip_sel[17] 0
8 *405:9 *422:11 0
9 *160:15 *405:7 4.7387e-05
10 *160:15 *405:9 8.0017e-06
11 *256:9 *405:9 0
12 *343:11 *405:7 4.05433e-05
13 *343:11 *405:9 0
*RES
1 *874:gpio_ib_mode_sel[17] *405:7 0.449667 
2 *405:7 *405:9 172.187 
3 *405:9 *405:11 0.5 
4 *405:11 gpio_ib_mode_sel[17] 3120.23 
*END

*D_NET *406 0.661235
*CONN
*P gpio_ib_mode_sel[18] O
*I *874:gpio_ib_mode_sel[18] O *D counter_gpio_config_example
*CAP
1 gpio_ib_mode_sel[18] 0.14344
2 *874:gpio_ib_mode_sel[18] 0.00140619
3 *406:15 0.14344
4 *406:13 0.0539639
5 *406:11 0.0539639
6 *406:9 0.0127633
7 *406:7 0.0141695
8 gpio_ib_mode_sel[18] gpio_oeb[18] 0
9 gpio_ib_mode_sel[18] gpio_vtrip_sel[18] 0
10 *406:9 *407:9 0.0489782
11 *406:9 *411:9 0.0527029
12 *406:9 *431:9 0
13 *406:9 *569:21 0.00125392
14 *406:13 *537:13 0
15 *406:13 *687:9 0.00232444
16 *406:13 *770:11 0.00559825
17 *141:13 *406:13 0.126633
18 *228:7 *406:7 0
19 *268:15 *406:7 0.000351864
20 *324:15 *406:13 0.000246433
*RES
1 *874:gpio_ib_mode_sel[18] *406:7 3.63627 
2 *406:7 *406:9 636.075 
3 *406:9 *406:11 0.5 
4 *406:11 *406:13 195.057 
5 *406:13 *406:15 0.5 
6 *406:15 gpio_ib_mode_sel[18] 2604.11 
*END

*D_NET *407 0.53051
*CONN
*P gpio_ib_mode_sel[19] O
*I *874:gpio_ib_mode_sel[19] O *D counter_gpio_config_example
*CAP
1 gpio_ib_mode_sel[19] 0.14291
2 *874:gpio_ib_mode_sel[19] 0.00152489
3 *407:15 0.14291
4 *407:13 0.0569319
5 *407:11 0.0569319
6 *407:9 0.010687
7 *407:7 0.0122119
8 gpio_ib_mode_sel[19] gpio_oeb[19] 0
9 gpio_ib_mode_sel[19] gpio_vtrip_sel[19] 0
10 gpio_ib_mode_sel[19] *715:13 0
11 *407:7 *664:16 0
12 *407:9 *431:9 0
13 *407:9 *536:9 0.0469566
14 *407:9 *537:9 0.000867221
15 *407:9 *569:21 0.000327557
16 *407:13 *537:13 0
17 *407:13 *722:11 0.00893265
18 *407:13 *772:11 0
19 *105:7 *407:7 0.000339781
20 *147:7 *407:7 0
21 *229:13 *407:13 0
22 *406:9 *407:9 0.0489782
*RES
1 *874:gpio_ib_mode_sel[19] *407:7 3.69453 
2 *407:7 *407:9 576.915 
3 *407:9 *407:11 0.5 
4 *407:11 *407:13 130.614 
5 *407:13 *407:15 0.5 
6 *407:15 gpio_ib_mode_sel[19] 2594.42 
*END

*D_NET *408 0.43802
*CONN
*P gpio_ib_mode_sel[1] O
*I *874:gpio_ib_mode_sel[1] O *D counter_gpio_config_example
*CAP
1 gpio_ib_mode_sel[1] 0.00273122
2 *874:gpio_ib_mode_sel[1] 0.00392566
3 *408:17 0.0850803
4 *408:15 0.0823491
5 *408:13 0.0362345
6 *408:11 0.0401601
7 gpio_ib_mode_sel[1] gpio_oeb[1] 0.000261545
8 gpio_ib_mode_sel[1] gpio_vtrip_sel[1] 0
9 gpio_ib_mode_sel[1] *672:17 0.000344153
10 *408:17 gpio_vtrip_sel[1] 0
11 *408:17 *672:17 0.184911
12 *94:13 *408:13 0
13 *145:11 *408:11 0.00101112
14 *258:11 *408:11 0.00101112
15 *310:11 *408:17 0
16 *310:13 *408:13 0
*RES
1 *874:gpio_ib_mode_sel[1] *408:11 9.96073 
2 *408:11 *408:13 77.1273 
3 *408:13 *408:15 0.5 
4 *408:15 *408:17 285.428 
5 *408:17 gpio_ib_mode_sel[1] 5.88177 
*END

*D_NET *409 0.521718
*CONN
*P gpio_ib_mode_sel[20] O
*I *874:gpio_ib_mode_sel[20] O *D counter_gpio_config_example
*CAP
1 gpio_ib_mode_sel[20] 0.00189945
2 *874:gpio_ib_mode_sel[20] 0.00727012
3 *409:13 0.108242
4 *409:11 0.113613
5 gpio_ib_mode_sel[20] gpio_oeb[20] 0
6 gpio_ib_mode_sel[20] gpio_vtrip_sel[20] 0
7 gpio_ib_mode_sel[20] *805:29 0
8 *130:13 *409:13 0.0390208
9 *158:9 *409:11 4.97507e-05
10 *187:13 *409:13 0.240643
11 *189:13 gpio_ib_mode_sel[20] 0
12 *237:7 *409:11 3.31358e-05
13 *273:9 *409:11 0
14 *276:13 *409:11 0.00137441
15 *355:11 *409:11 0
16 *390:13 *409:13 0.00957157
*RES
1 *874:gpio_ib_mode_sel[20] *409:11 16.9819 
2 *409:11 *409:13 2989.22 
3 *409:13 gpio_ib_mode_sel[20] 15.315 
*END

*D_NET *410 0.326374
*CONN
*P gpio_ib_mode_sel[21] O
*I *874:gpio_ib_mode_sel[21] O *D counter_gpio_config_example
*CAP
1 gpio_ib_mode_sel[21] 0.000104742
2 *874:gpio_ib_mode_sel[21] 0.00212806
3 *410:21 0.146547
4 *410:19 0.152088
5 *410:15 0.00777322
6 gpio_ib_mode_sel[21] gpio_oeb[21] 0
7 *410:15 *705:41 0.00299614
8 *410:19 *874:gpio_in[38] 0.00232163
9 *410:19 *553:16 0.000885173
10 *410:19 *740:18 0.001328
11 *410:19 *826:14 0.00256335
12 *410:21 gpio_vtrip_sel[21] 2.23231e-05
13 *410:21 *806:21 0
14 *117:15 *410:15 0.000158482
15 *176:11 *410:19 0
16 *176:13 *410:19 0.00132248
17 *205:17 *410:19 0.00199854
18 *216:7 *410:15 3.82159e-05
19 *216:9 *410:15 0.000249795
20 *321:11 *410:15 0
21 *367:17 *410:15 0.00299614
22 *372:23 *410:19 0.00065882
23 *380:11 *410:15 0.000194187
*RES
1 *874:gpio_ib_mode_sel[21] *410:15 38.5886 
2 *410:15 *410:19 17.0857 
3 *410:19 *410:21 2650.06 
4 *410:21 gpio_ib_mode_sel[21] 5.83 
*END

*D_NET *411 0.486836
*CONN
*P gpio_ib_mode_sel[22] O
*I *874:gpio_ib_mode_sel[22] O *D counter_gpio_config_example
*CAP
1 gpio_ib_mode_sel[22] 0.145085
2 *874:gpio_ib_mode_sel[22] 0.00112455
3 *411:15 0.155152
4 *411:9 0.0288536
5 *411:7 0.0199108
6 gpio_ib_mode_sel[22] gpio_oeb[22] 0
7 gpio_ib_mode_sel[22] gpio_vtrip_sel[22] 0
8 gpio_ib_mode_sel[22] *688:23 0
9 gpio_ib_mode_sel[22] *773:5 0
10 gpio_ib_mode_sel[22] *817:21 0.0137612
11 *411:7 *439:7 0.000331035
12 *411:7 *666:15 0.000202015
13 *411:9 *431:9 0
14 *411:9 *438:9 0.00109166
15 *411:9 *439:9 0
16 *411:9 *569:21 0.0472519
17 *411:15 *553:18 0.0210087
18 *102:7 *411:7 0.000360608
19 *290:17 *411:15 0
20 *406:9 *411:9 0.0527029
*RES
1 *874:gpio_ib_mode_sel[22] *411:7 3.578 
2 *411:7 *411:9 732.975 
3 *411:9 *411:15 33.7256 
4 *411:15 gpio_ib_mode_sel[22] 2629.61 
*END

*D_NET *412 0.436835
*CONN
*P gpio_ib_mode_sel[23] O
*I *874:gpio_ib_mode_sel[23] O *D counter_gpio_config_example
*CAP
1 gpio_ib_mode_sel[23] 0.00213241
2 *874:gpio_ib_mode_sel[23] 0.00150448
3 *412:9 0.107487
4 *412:7 0.106859
5 gpio_ib_mode_sel[23] gpio_oeb[23] 0
6 gpio_ib_mode_sel[23] gpio_vtrip_sel[23] 0
7 *412:7 *565:7 0.000262055
8 *412:9 *438:9 0.111838
9 *412:9 *439:9 0.00839745
10 *412:9 *569:21 0.0523149
11 *412:9 *666:17 0.0459899
12 *412:9 *808:13 0
13 *190:7 *412:7 5.00763e-05
14 *329:7 *412:7 0
*RES
1 *874:gpio_ib_mode_sel[23] *412:7 3.46147 
2 *412:7 *412:9 2886.24 
3 *412:9 gpio_ib_mode_sel[23] 36.0975 
*END

*D_NET *413 0.597076
*CONN
*P gpio_ib_mode_sel[24] O
*I *874:gpio_ib_mode_sel[24] O *D counter_gpio_config_example
*CAP
1 gpio_ib_mode_sel[24] 0.00341927
2 *874:gpio_ib_mode_sel[24] 0.00586126
3 *413:17 0.149426
4 *413:15 0.146235
5 *413:9 0.00732349
6 *413:7 0.0129562
7 gpio_ib_mode_sel[24] gpio_oeb[24] 0
8 gpio_ib_mode_sel[24] gpio_out[24] 0
9 gpio_ib_mode_sel[24] gpio_vtrip_sel[24] 0.00146034
10 gpio_ib_mode_sel[24] *809:17 0.0053689
11 *413:17 gpio_vtrip_sel[27] 0.000291325
12 *413:17 gpio_vtrip_sel[30] 0.000291325
13 *413:17 *810:21 0.00969908
14 gpio_analog_en[26] *413:17 0.000291325
15 gpio_analog_en[32] *413:17 0.000291325
16 gpio_analog_pol[30] *413:17 0.000291325
17 gpio_analog_pol[35] *413:15 0.00040063
18 gpio_dm0[28] *413:17 0.000237784
19 gpio_dm0[34] *413:17 0.000237784
20 gpio_dm0[35] *413:15 2.90695e-05
21 gpio_holdover[32] *413:17 0.000344865
22 *157:9 *413:9 0.00583618
23 *157:17 *413:17 0.0865523
24 *159:9 *413:17 0.0060098
25 *161:9 *413:9 0.00935745
26 *202:9 *413:17 0.00163507
27 *285:9 *413:17 0
28 *289:9 *413:17 0.000285704
29 *336:7 *413:7 0.00156607
30 *336:9 *413:17 0.00736207
31 *361:7 *413:7 0.00156607
32 *361:9 *413:17 0.0560285
33 *365:9 *413:17 0.0549368
34 *366:9 *413:9 0.0214839
35 *373:17 *413:17 0
*RES
1 *874:gpio_ib_mode_sel[24] *413:7 14.7652 
2 *413:7 *413:9 242.865 
3 *413:9 *413:15 1.70807 
4 *413:15 *413:17 429.929 
5 *413:17 gpio_ib_mode_sel[24] 11.1685 
*END

*D_NET *414 0.353261
*CONN
*P gpio_ib_mode_sel[25] O
*I *874:gpio_ib_mode_sel[25] O *D counter_gpio_config_example
*CAP
1 gpio_ib_mode_sel[25] 0.00531041
2 *874:gpio_ib_mode_sel[25] 0.00628632
3 *414:9 0.128041
4 *414:7 0.129016
5 gpio_ib_mode_sel[25] gpio_oeb[25] 0
6 gpio_ib_mode_sel[25] gpio_vtrip_sel[25] 0.000166625
7 gpio_ib_mode_sel[25] *546:21 0
8 *414:7 *438:7 0
9 *414:7 *663:7 0.000225163
10 *414:9 *464:11 0.0443117
11 *414:9 *538:9 0
12 *202:9 *414:9 0.00156381
13 *285:9 *414:9 0.0365004
14 *361:9 *414:9 0
15 *365:7 *414:7 0.00183994
16 *365:9 *414:9 0
*RES
1 *874:gpio_ib_mode_sel[25] *414:7 15.9305 
2 *414:7 *414:9 2410.88 
3 *414:9 gpio_ib_mode_sel[25] 19.5952 
*END

*D_NET *415 0.509798
*CONN
*P gpio_ib_mode_sel[26] O
*I *874:gpio_ib_mode_sel[26] O *D counter_gpio_config_example
*CAP
1 gpio_ib_mode_sel[26] 0.00229352
2 *874:gpio_ib_mode_sel[26] 0.00198324
3 *415:17 0.0417083
4 *415:15 0.0394148
5 *415:13 0.0471371
6 *415:11 0.0491204
7 gpio_ib_mode_sel[26] gpio_oeb[26] 0.000384197
8 gpio_ib_mode_sel[26] gpio_vtrip_sel[26] 0
9 *415:13 *531:13 0.030325
10 *415:13 *533:19 0.000995289
11 *415:17 gpio_vtrip_sel[26] 0
12 *415:17 *663:13 0
13 *415:17 *795:9 0.0250845
14 *100:7 *415:11 4.71514e-05
15 *100:9 *415:11 0.000461329
16 *148:13 *415:13 0.000943386
17 *149:13 *415:13 0.000509381
18 *149:21 *415:13 0.112964
19 *156:13 *415:13 0.105953
20 *188:7 *415:11 4.14661e-05
21 *188:9 *415:11 0.000470609
22 *205:13 *415:13 0.000454312
23 *246:31 *415:13 0.0071863
24 *246:35 *415:13 0.00180331
25 *246:37 *415:13 0.0402055
26 *246:51 *415:13 4.14198e-05
27 *282:13 *415:13 0.000147915
28 *326:21 *415:13 0
29 *330:21 *415:13 0.000121367
*RES
1 *874:gpio_ib_mode_sel[26] *415:11 5.2994 
2 *415:11 *415:13 309.687 
3 *415:13 *415:15 0.5 
4 *415:15 *415:17 101.539 
5 *415:17 gpio_ib_mode_sel[26] 4.86337 
*END

*D_NET *416 0.393705
*CONN
*P gpio_ib_mode_sel[27] O
*I *874:gpio_ib_mode_sel[27] O *D counter_gpio_config_example
*CAP
1 gpio_ib_mode_sel[27] 0.00247408
2 *874:gpio_ib_mode_sel[27] 0.019146
3 *416:25 0.0986473
4 *416:23 0.115319
5 gpio_ib_mode_sel[27] gpio_oeb[27] 0.000674947
6 gpio_ib_mode_sel[27] gpio_vtrip_sel[27] 0.000609354
7 gpio_ib_mode_sel[27] *680:17 0
8 *416:23 *424:9 0.00195737
9 *416:23 *424:35 0.00512324
10 *416:23 *424:39 0.00108549
11 *416:23 *552:7 0
12 *416:23 *819:13 0.00599937
13 *416:25 *417:17 0.115476
14 *416:25 *424:39 0.0128132
15 *416:25 *550:9 0
16 *416:25 *819:13 0.0132562
17 gpio_dm0[36] *416:23 4.75733e-05
18 gpio_dm1[36] *416:23 0
19 *127:7 *416:23 0.000379616
20 *173:7 *416:23 0.000695868
*RES
1 *874:gpio_ib_mode_sel[27] *416:23 46.663 
2 *416:23 *416:25 287.627 
3 *416:25 gpio_ib_mode_sel[27] 6.5819 
*END

*D_NET *417 0.351972
*CONN
*P gpio_ib_mode_sel[28] O
*I *874:gpio_ib_mode_sel[28] O *D counter_gpio_config_example
*CAP
1 gpio_ib_mode_sel[28] 0.00262665
2 *874:gpio_ib_mode_sel[28] 0.00771529
3 *417:17 0.0595346
4 *417:15 0.0569749
5 *417:9 0.0411499
6 *417:7 0.0487982
7 gpio_ib_mode_sel[28] gpio_oeb[28] 0
8 gpio_ib_mode_sel[28] gpio_vtrip_sel[28] 0.0012989
9 *417:9 *424:9 0.0085512
10 *417:9 *424:35 0.00146917
11 *417:9 *424:39 0.00621138
12 *417:9 *457:11 0
13 *417:9 *819:13 0
14 *417:15 gpio_out[34] 0.000158577
15 *417:17 *550:9 0
16 *377:7 *417:7 0.000574283
17 *382:7 *417:7 0.00143256
18 *416:25 *417:17 0.115476
*RES
1 *874:gpio_ib_mode_sel[28] *417:7 19.8927 
2 *417:7 *417:9 745.725 
3 *417:9 *417:15 1.24193 
4 *417:15 *417:17 216.836 
5 *417:17 gpio_ib_mode_sel[28] 6.47043 
*END

*D_NET *418 0.367491
*CONN
*P gpio_ib_mode_sel[29] O
*I *874:gpio_ib_mode_sel[29] O *D counter_gpio_config_example
*CAP
1 gpio_ib_mode_sel[29] 0.00618216
2 *874:gpio_ib_mode_sel[29] 0.00405391
3 *418:9 0.11148
4 *418:7 0.109351
5 gpio_ib_mode_sel[29] gpio_vtrip_sel[29] 0
6 gpio_ib_mode_sel[29] *682:9 0.00882319
7 *162:9 *418:9 0.00119757
8 *179:15 *418:9 0.00760645
9 *212:7 *418:7 0
10 *241:19 *418:9 0.00339333
11 *259:15 *418:7 0
12 *333:9 *418:9 0.115003
13 *369:7 *418:7 0.000400535
14 *374:9 *418:9 0
*RES
1 *874:gpio_ib_mode_sel[29] *418:7 9.02593 
2 *418:7 *418:9 302.021 
3 *418:9 gpio_ib_mode_sel[29] 18.0782 
*END

*D_NET *419 0.399019
*CONN
*P gpio_ib_mode_sel[2] O
*I *874:gpio_ib_mode_sel[2] O *D counter_gpio_config_example
*CAP
1 gpio_ib_mode_sel[2] 0.00259929
2 *874:gpio_ib_mode_sel[2] 0.0178568
3 *419:17 0.080159
4 *419:15 0.0954165
5 gpio_ib_mode_sel[2] *683:17 0
6 gpio_ib_mode_sel[2] *815:21 0.000789132
7 *419:15 *749:25 0.00243031
8 *419:17 *683:17 0
9 *419:17 *815:21 0.190916
10 *131:9 *419:15 0
11 *169:13 *419:15 0.000876408
12 *177:11 *419:17 0.00222976
13 *214:13 *419:15 0.000337616
14 *243:15 *419:15 0.00185573
15 *263:11 *419:15 0.00073979
16 *281:11 *419:15 0.000884157
17 *281:13 *419:15 0.000449202
18 *298:16 *419:15 0.000725461
19 *357:19 *419:15 0.000753624
*RES
1 *874:gpio_ib_mode_sel[2] *419:15 39.4294 
2 *419:15 *419:17 288.108 
3 *419:17 gpio_ib_mode_sel[2] 5.8349 
*END

*D_NET *420 0.285197
*CONN
*P gpio_ib_mode_sel[30] O
*I *874:gpio_ib_mode_sel[30] O *D counter_gpio_config_example
*CAP
1 gpio_ib_mode_sel[30] 0.00193654
2 *874:gpio_ib_mode_sel[30] 0.00189281
3 *420:18 0.0417235
4 *420:16 0.039787
5 *420:14 0.0914207
6 *420:12 0.0933135
7 gpio_ib_mode_sel[30] gpio_oeb[30] 0.000656057
8 gpio_ib_mode_sel[30] gpio_vtrip_sel[30] 0.000448546
9 *420:12 *545:16 0.000855697
10 *420:18 gpio_oeb[30] 8.24893e-06
11 *420:18 gpio_vtrip_sel[30] 0.0131538
12 *237:9 *420:12 0
*RES
1 *874:gpio_ib_mode_sel[30] *420:12 3.46706 
2 *420:12 *420:14 185.139 
3 *420:14 *420:16 0.5 
4 *420:16 *420:18 94.8961 
5 *420:18 gpio_ib_mode_sel[30] 4.8127 
*END

*D_NET *421 0.272538
*CONN
*P gpio_ib_mode_sel[31] O
*I *874:gpio_ib_mode_sel[31] O *D counter_gpio_config_example
*CAP
1 gpio_ib_mode_sel[31] 0.0087628
2 *874:gpio_ib_mode_sel[31] 0.00348099
3 *421:9 0.113104
4 *421:7 0.107822
5 gpio_ib_mode_sel[31] gpio_oeb[31] 0
6 gpio_ib_mode_sel[31] gpio_vtrip_sel[31] 0.000752746
7 *157:7 *421:7 0
8 *215:9 *421:9 0.00965751
9 *217:9 *421:9 0.0203451
10 *259:17 *421:9 0.00781889
11 *329:15 gpio_ib_mode_sel[31] 5.71181e-06
12 *379:11 *421:7 0.000789196
*RES
1 *874:gpio_ib_mode_sel[31] *421:7 7.8606 
2 *421:7 *421:9 208.567 
3 *421:9 gpio_ib_mode_sel[31] 18.7115 
*END

*D_NET *422 0.291957
*CONN
*P gpio_ib_mode_sel[32] O
*I *874:gpio_ib_mode_sel[32] O *D counter_gpio_config_example
*CAP
1 gpio_ib_mode_sel[32] 0.000363034
2 *874:gpio_ib_mode_sel[32] 0.000405477
3 *422:17 0.0402226
4 *422:15 0.0398596
5 *422:13 0.0173672
6 *422:11 0.0177727
7 gpio_ib_mode_sel[32] gpio_oeb[32] 0
8 gpio_ib_mode_sel[32] gpio_vtrip_sel[32] 6.11805e-05
9 gpio_ib_mode_sel[32] *726:21 0.000506975
10 *422:13 *463:11 0
11 *422:13 *549:13 0.0776484
12 *422:17 gpio_oeb[32] 0.000137002
13 *422:17 *834:9 0.0249087
14 *137:13 *422:11 0.000181725
15 *303:7 *422:11 1.983e-05
16 *335:13 *422:13 0.0626105
17 *343:11 *422:11 0.000148758
18 *368:31 *422:13 0.000103095
19 *378:15 *422:13 0.00138217
20 *378:21 *422:13 0.00825822
21 *405:9 *422:11 0
*RES
1 *874:gpio_ib_mode_sel[32] *422:11 1.8908 
2 *422:11 *422:13 883.425 
3 *422:13 *422:15 0.5 
4 *422:15 *422:17 102.179 
5 *422:17 gpio_ib_mode_sel[32] 7.22672 
*END

*D_NET *423 0.173099
*CONN
*P gpio_ib_mode_sel[33] O
*I *874:gpio_ib_mode_sel[33] O *D counter_gpio_config_example
*CAP
1 gpio_ib_mode_sel[33] 0.000118343
2 *874:gpio_ib_mode_sel[33] 0.00272398
3 *423:17 0.0452291
4 *423:15 0.0451108
5 *423:13 0.0133913
6 *423:11 0.0161153
7 *423:13 *444:11 0.00570518
8 *423:13 *446:11 0.0039939
9 *423:17 gpio_oeb[33] 0.000661881
10 *423:17 gpio_vtrip_sel[33] 0.000583536
11 *423:17 *687:17 0
12 *423:17 *712:9 0.00515374
13 *153:13 *423:13 0.0272492
14 *239:21 *423:13 0
15 *281:21 *423:13 0.000967341
16 *286:15 *423:13 0.00522425
17 *331:9 *423:11 0
18 *367:15 *423:11 0.000325956
19 *397:7 *423:11 3.19771e-05
20 *397:9 *423:11 0.000513404
*RES
1 *874:gpio_ib_mode_sel[33] *423:11 6.46473 
2 *423:11 *423:13 51.4596 
3 *423:13 *423:15 0.5 
4 *423:15 *423:17 107.055 
5 *423:17 gpio_ib_mode_sel[33] 0.3401 
*END

*D_NET *424 0.162871
*CONN
*P gpio_ib_mode_sel[34] O
*I *874:gpio_ib_mode_sel[34] O *D counter_gpio_config_example
*CAP
1 gpio_ib_mode_sel[34] 0.00220914
2 *874:gpio_ib_mode_sel[34] 0.00717529
3 *424:44 6.61132e-06
4 *424:39 0.0150998
5 *424:35 0.016819
6 *424:9 0.0293109
7 *424:7 0.0325645
8 gpio_ib_mode_sel[34] gpio_oeb[34] 0
9 gpio_ib_mode_sel[34] gpio_vtrip_sel[34] 0.00377193
10 gpio_ib_mode_sel[34] *688:25 0
11 *424:9 *550:9 0.00177405
12 *424:9 *819:13 0.00976538
13 *424:35 gpio_slow_sel[36] 4.15225e-05
14 *424:35 *550:9 0.000390627
15 *424:35 *819:13 0
16 *424:39 *550:9 0.00309314
17 *424:44 gpio_oeb[34] 0
18 gpio_dm0[36] *424:35 2.38374e-05
19 gpio_dm1[36] *424:35 9.73385e-05
20 *202:7 *424:7 0.00204779
21 *291:7 *424:7 0.00146909
22 *416:23 *424:9 0.00195737
23 *416:23 *424:35 0.00512324
24 *416:23 *424:39 0.00108549
25 *416:25 *424:39 0.0128132
26 *417:9 *424:9 0.0085512
27 *417:9 *424:35 0.00146917
28 *417:9 *424:39 0.00621138
*RES
1 *874:gpio_ib_mode_sel[34] *424:7 19.9801 
2 *424:7 *424:9 66.9661 
3 *424:9 *424:35 17.9981 
4 *424:35 *424:39 48.7727 
5 *424:39 gpio_ib_mode_sel[34] 6.02047 
6 gpio_ib_mode_sel[34] *424:44 0.0556098 
*END

*D_NET *425 0.182086
*CONN
*P gpio_ib_mode_sel[35] O
*I *874:gpio_ib_mode_sel[35] O *D counter_gpio_config_example
*CAP
1 gpio_ib_mode_sel[35] 0.000238427
2 *874:gpio_ib_mode_sel[35] 0.000271671
3 *425:21 0.00182198
4 *425:19 0.00158356
5 *425:17 0.0262982
6 *425:15 0.0262982
7 *425:13 0.00696941
8 *425:11 0.00724108
9 gpio_ib_mode_sel[35] gpio_oeb[35] 0.000155952
10 gpio_ib_mode_sel[35] gpio_vtrip_sel[35] 0.000434304
11 *425:13 *543:13 0.0235567
12 *425:13 *546:13 0
13 *425:17 *557:17 0.0253517
14 *425:17 *661:15 0.0027702
15 *425:17 *689:11 0.0156402
16 *425:17 *705:39 0.00129721
17 *425:17 *734:11 0.000694094
18 *425:17 *735:11 0.00122673
19 *425:17 *749:19 0.00421339
20 *425:17 *779:16 0.00406696
21 *425:17 *787:11 0.000990161
22 *425:21 *726:21 0
23 *127:19 *425:17 4.02901e-05
24 *140:7 *425:11 3.76245e-05
25 *140:9 *425:11 2.17038e-05
26 *146:27 *425:17 0.00302195
27 *200:13 *425:13 0.000744246
28 *235:13 *425:13 0.0128379
29 *239:11 *425:11 6.85128e-05
30 *240:19 *425:17 0.00173265
31 *282:27 *425:17 3.99991e-05
32 *338:21 *425:21 0.00666284
33 *347:19 *425:17 2.08692e-05
34 *381:21 *425:21 0.00573783
*RES
1 *874:gpio_ib_mode_sel[35] *425:11 1.1916 
2 *425:11 *425:13 269.385 
3 *425:13 *425:15 0.5 
4 *425:15 *425:17 101.131 
5 *425:17 *425:19 0.5 
6 *425:19 *425:21 77.115 
7 *425:21 gpio_ib_mode_sel[35] 1.34297 
*END

*D_NET *426 0.140446
*CONN
*P gpio_ib_mode_sel[36] O
*I *874:gpio_ib_mode_sel[36] O *D counter_gpio_config_example
*CAP
1 gpio_ib_mode_sel[36] 0.010584
2 *874:gpio_ib_mode_sel[36] 0.00167336
3 *426:9 0.0294104
4 *426:7 0.0204997
5 gpio_ib_mode_sel[36] gpio_oeb[36] 0.00104468
6 *426:9 *431:9 0.00175973
7 *426:9 *778:13 0.00244546
8 *93:15 *426:7 0.000392655
9 *93:15 *426:9 0.0211504
10 *93:17 *426:9 0.000208883
11 *105:9 *426:9 0.000154286
12 *105:15 gpio_ib_mode_sel[36] 0
13 *122:17 *426:9 0.000950906
14 *127:9 *426:9 0.00642808
15 *133:9 *426:9 0.0280652
16 *180:9 *426:9 0.000268434
17 *194:7 gpio_ib_mode_sel[36] 0
18 *223:7 *426:7 0.000115924
19 *244:9 *426:9 0.0120644
20 *392:13 *426:9 0.00322909
*RES
1 *874:gpio_ib_mode_sel[36] *426:7 4.3646 
2 *426:7 *426:9 82.2092 
3 *426:9 gpio_ib_mode_sel[36] 22.4811 
*END

*D_NET *427 0.259434
*CONN
*P gpio_ib_mode_sel[37] O
*I *874:gpio_ib_mode_sel[37] O *D counter_gpio_config_example
*CAP
1 gpio_ib_mode_sel[37] 0.000390819
2 *874:gpio_ib_mode_sel[37] 0.000360846
3 *427:21 0.0162114
4 *427:19 0.0158206
5 *427:17 0.0189858
6 *427:15 0.0189858
7 *427:13 0.00245466
8 *427:11 0.00281551
9 gpio_ib_mode_sel[37] gpio_oeb[37] 0.000124795
10 gpio_ib_mode_sel[37] gpio_vtrip_sel[37] 7.36553e-05
11 *427:11 *531:11 7.2422e-05
12 *427:13 *546:13 0
13 *427:17 *829:16 0.00113547
14 *427:21 gpio_vtrip_sel[37] 0.000675222
15 *427:21 *726:21 0
16 gpio_dm0[37] *427:21 0
17 gpio_dm1[35] *427:21 0.00375485
18 gpio_holdover[36] *427:21 0.0032253
19 *117:17 *427:17 0.0535037
20 *118:20 *427:21 0.00305056
21 *148:17 *427:17 0.0073598
22 *160:17 *427:13 0.000318962
23 *207:9 *427:21 0
24 *215:33 *427:17 0.00449366
25 *235:13 *427:13 0.00800359
26 *313:7 *427:11 3.59844e-05
27 *313:9 *427:11 2.91491e-05
28 *338:13 *427:13 0.00437405
29 *338:17 *427:17 0.06576
30 *338:21 *427:21 0.0198073
31 *339:35 *427:21 0
32 *381:17 *427:17 0.00416632
33 *381:21 *427:21 1.74869e-05
34 *391:21 *427:17 0.0034262
*RES
1 *874:gpio_ib_mode_sel[37] *427:11 1.30813 
2 *427:11 *427:13 91.905 
3 *427:13 *427:15 0.5 
4 *427:15 *427:17 101.131 
5 *427:17 *427:19 0.5 
6 *427:19 *427:21 404.535 
7 *427:21 gpio_ib_mode_sel[37] 1.48483 
*END

*D_NET *428 0.13827
*CONN
*P gpio_ib_mode_sel[38] O
*I *874:gpio_ib_mode_sel[38] O *D counter_gpio_config_example
*CAP
1 gpio_ib_mode_sel[38] 0.00540152
2 *874:gpio_ib_mode_sel[38] 7.05941e-05
3 *428:17 0.00540152
4 *428:15 0.0262735
5 *428:13 0.0262735
6 *428:11 0.0116928
7 *428:9 0.0117633
8 gpio_ib_mode_sel[38] *692:13 0.0124829
9 *428:11 *560:11 0.00818007
10 *428:11 *564:8 0.000280267
11 *428:11 *566:8 0.000194387
12 *428:15 *472:13 0.000807025
13 *428:15 *477:11 0
14 *428:15 *695:14 0.0271045
15 *105:7 *428:9 4.30894e-06
16 *252:44 gpio_ib_mode_sel[38] 0.000425318
17 *301:9 *428:11 0
18 *392:11 *428:9 0
19 *404:11 *428:11 0.00191463
*RES
1 *874:gpio_ib_mode_sel[38] *428:9 0.672267 
2 *428:9 *428:11 251.535 
3 *428:11 *428:13 0.5 
4 *428:13 *428:15 75.0855 
5 *428:15 *428:17 0.5 
6 *428:17 gpio_ib_mode_sel[38] 147.645 
*END

*D_NET *429 0.105643
*CONN
*P gpio_ib_mode_sel[39] O
*I *874:gpio_ib_mode_sel[39] O *D counter_gpio_config_example
*CAP
1 gpio_ib_mode_sel[39] 0.00103032
2 *874:gpio_ib_mode_sel[39] 0.000125902
3 *429:13 0.0242005
4 *429:11 0.0231702
5 *429:9 0.0224195
6 *429:7 0.0225454
7 gpio_ib_mode_sel[39] gpio_oeb[39] 0
8 gpio_ib_mode_sel[39] *478:9 0
9 gpio_ib_mode_sel[39] *565:13 0.000323283
10 gpio_ib_mode_sel[39] *825:18 0
11 *429:13 *825:18 0
12 *126:11 *429:7 4.7387e-05
13 *126:11 *429:9 0.000259043
14 *131:7 *429:7 4.7387e-05
15 *131:9 *429:7 8.0017e-06
16 *131:9 *429:9 0.00935826
17 *222:9 *429:9 0
18 *320:17 *429:9 0.00210799
*RES
1 *874:gpio_ib_mode_sel[39] *429:7 0.449667 
2 *429:7 *429:9 66.7242 
3 *429:9 *429:11 0.5 
4 *429:11 *429:13 415.245 
5 *429:13 gpio_ib_mode_sel[39] 14.6095 
*END

*D_NET *430 0.394354
*CONN
*P gpio_ib_mode_sel[3] O
*I *874:gpio_ib_mode_sel[3] O *D counter_gpio_config_example
*CAP
1 gpio_ib_mode_sel[3] 0.00249192
2 *874:gpio_ib_mode_sel[3] 0.0666862
3 *430:19 0.123591
4 *430:17 0.187786
5 gpio_ib_mode_sel[3] gpio_oeb[3] 0
6 gpio_ib_mode_sel[3] gpio_vtrip_sel[3] 0.00163962
7 gpio_ib_mode_sel[3] *826:22 0
8 *430:17 *433:8 0.000257785
9 *430:17 *437:9 0.000192285
10 *430:19 *826:22 0
11 *98:13 *430:17 0.000989428
12 *130:13 *430:17 0
13 *177:13 *430:17 0.00309718
14 *209:9 *430:17 0.00126536
15 *253:11 *430:19 0
16 *258:13 *430:17 0.00522173
17 *353:9 *430:17 0.00113545
*RES
1 *874:gpio_ib_mode_sel[3] *430:17 49.9116 
2 *430:17 *430:19 279.135 
3 *430:19 gpio_ib_mode_sel[3] 5.69303 
*END

*D_NET *431 0.32692
*CONN
*P gpio_ib_mode_sel[40] O
*I *874:gpio_ib_mode_sel[40] O *D counter_gpio_config_example
*CAP
1 gpio_ib_mode_sel[40] 0.000821581
2 *874:gpio_ib_mode_sel[40] 0.00173201
3 *431:13 0.0514097
4 *431:11 0.0505881
5 *431:9 0.0212302
6 *431:7 0.0229622
7 gpio_ib_mode_sel[40] *695:22 0
8 *431:9 *537:9 0
9 *431:9 *666:15 0.000103095
10 *431:9 *778:13 0
11 *431:13 *565:13 0.117961
12 *431:13 *693:9 0
13 gpio_analog_en[38] *431:13 0.00396284
14 gpio_analog_pol[39] *431:13 0.00435809
15 *93:17 *431:9 0.013415
16 *105:9 *431:9 0.0015094
17 *125:9 *431:9 0.0328699
18 *133:9 *431:9 0.00159019
19 *289:7 *431:7 0.000323774
20 *402:7 *431:7 0.000323774
21 *406:9 *431:9 0
22 *407:9 *431:9 0
23 *411:9 *431:9 0
24 *426:9 *431:9 0.00175973
*RES
1 *874:gpio_ib_mode_sel[40] *431:7 4.16067 
2 *431:7 *431:9 582.015 
3 *431:9 *431:11 0.5 
4 *431:11 *431:13 182.063 
5 *431:13 gpio_ib_mode_sel[40] 14.6075 
*END

*D_NET *432 0.203715
*CONN
*P gpio_ib_mode_sel[41] O
*I *874:gpio_ib_mode_sel[41] O *D counter_gpio_config_example
*CAP
1 gpio_ib_mode_sel[41] 4.47187e-05
2 *874:gpio_ib_mode_sel[41] 0.000668046
3 *432:23 0.00255153
4 *432:21 0.00250681
5 *432:19 0.0880315
6 *432:17 0.0880315
7 *432:15 0.00406708
8 *432:13 0.00473513
9 gpio_ib_mode_sel[41] gpio_oeb[41] 2.299e-05
10 *432:13 *560:11 7.87451e-05
11 *432:13 *563:11 0.000861531
12 *432:13 *564:8 0.000106321
13 *432:13 *566:8 0.000234659
14 *432:13 *567:13 0.000251136
15 *432:13 *662:25 0
16 *432:15 *563:11 0.00541645
17 *432:15 *566:8 0.00157434
18 *432:19 *563:15 0
19 *432:23 gpio_oeb[41] 0
20 *432:23 gpio_vtrip_sel[41] 0
21 *432:23 *696:18 0.00453205
22 *126:17 *432:19 0
23 *211:17 *432:19 0
24 *345:17 *432:23 0
*RES
1 *874:gpio_ib_mode_sel[41] *432:13 13.0357 
2 *432:13 *432:15 106.365 
3 *432:15 *432:17 0.5 
4 *432:17 *432:19 213.003 
5 *432:19 *432:21 0.5 
6 *432:21 *432:23 63.855 
7 *432:23 gpio_ib_mode_sel[41] 1.0575 
*END

*D_NET *433 0.27891
*CONN
*P gpio_ib_mode_sel[42] O
*I *874:gpio_ib_mode_sel[42] O *D counter_gpio_config_example
*CAP
1 gpio_ib_mode_sel[42] 0.000336637
2 *874:gpio_ib_mode_sel[42] 0.00233299
3 *433:22 0.0836144
4 *433:20 0.0832777
5 *433:18 0.00957863
6 *433:16 0.0098113
7 *433:10 0.0254762
8 *433:8 0.0275765
9 gpio_ib_mode_sel[42] gpio_vtrip_sel[42] 1.02439e-05
10 *433:8 *664:18 0.000544444
11 *433:8 *665:22 0.000544444
12 *433:10 *532:17 0
13 *433:10 *534:28 0
14 *433:10 *566:8 0
15 *433:10 *571:16 0
16 *433:10 *664:16 0
17 *433:10 *665:20 0
18 *433:16 *459:23 0.000122837
19 *433:16 *690:13 0.000299346
20 *433:16 *726:9 0.000119591
21 *433:16 *731:9 0.000112592
22 *433:22 *828:11 0.000247981
23 *433:22 *828:13 0.0237693
24 *433:22 *873:13 0.00118301
25 gpio_dm0[42] *433:22 0.00473208
26 gpio_dm2[42] *433:22 0.000252142
27 *123:21 *433:22 0
28 *125:21 *433:22 0
29 *129:9 *433:8 0.00129681
30 *129:9 *433:10 0
31 *144:12 *433:10 0
32 *168:21 *433:22 0
33 *300:21 *433:22 0
34 *342:19 *433:10 0
35 *344:33 *433:22 0.00341332
36 *344:35 *433:22 0
37 *430:17 *433:8 0.000257785
*RES
1 *874:gpio_ib_mode_sel[42] *433:8 7.7656 
2 *433:8 *433:10 61.8817 
3 *433:10 *433:16 1.8246 
4 *433:16 *433:18 170.827 
5 *433:18 *433:20 2 
6 *433:20 *433:22 1457.73 
7 *433:22 gpio_ib_mode_sel[42] 8.18 
*END

*D_NET *434 0.355203
*CONN
*P gpio_ib_mode_sel[43] O
*I *874:gpio_ib_mode_sel[43] O *D counter_gpio_config_example
*CAP
1 gpio_ib_mode_sel[43] 0.00011539
2 *874:gpio_ib_mode_sel[43] 0.000313952
3 *434:21 0.00298768
4 *434:19 0.00291766
5 *434:17 0.00403789
6 *434:15 0.00399252
7 *434:13 0.102146
8 *434:11 0.102146
9 *434:9 0.0143378
10 *434:7 0.0146518
11 *434:13 *698:9 0
12 *434:21 gpio_vtrip_sel[43] 0.0028892
13 *107:7 *434:7 5.80604e-05
14 *223:9 *434:9 0
15 *225:9 *434:9 0
16 *252:48 *434:13 0.00300019
17 *266:15 *434:9 0.000531604
18 *302:9 *434:9 0.034628
19 *302:13 *434:13 0
20 *343:17 *434:13 0.0657346
21 *347:9 *434:9 0.00030782
22 *373:7 *434:7 5.18158e-05
23 *384:9 *434:9 0
24 *391:9 *434:9 0.000356277
*RES
1 *874:gpio_ib_mode_sel[43] *434:7 1.1308 
2 *434:7 *434:9 394.335 
3 *434:9 *434:11 0.5 
4 *434:11 *434:13 282.864 
5 *434:13 *434:15 0.5 
6 *434:15 *434:17 69.84 
7 *434:17 *434:19 0.795 
8 *434:19 *434:21 62.1 
9 *434:21 gpio_ib_mode_sel[43] 2.1225 
*END

*D_NET *435 0.28698
*CONN
*P gpio_ib_mode_sel[4] O
*I *874:gpio_ib_mode_sel[4] O *D counter_gpio_config_example
*CAP
1 gpio_ib_mode_sel[4] 0.00591795
2 *874:gpio_ib_mode_sel[4] 0.0001607
3 *435:9 0.109084
4 *435:7 0.103327
5 gpio_ib_mode_sel[4] gpio_oeb[4] 0.00161168
6 gpio_ib_mode_sel[4] *483:11 0.00246191
7 gpio_ib_mode_sel[4] *699:9 0.00247123
8 gpio_analog_pol[4] gpio_ib_mode_sel[4] 0.00874929
9 *156:11 *435:7 4.14661e-05
10 *156:11 *435:9 0.000480455
11 *171:7 *435:7 4.14661e-05
12 *171:9 *435:7 5.68526e-06
13 *171:9 *435:9 0.0410675
14 *348:13 gpio_ib_mode_sel[4] 0.0115607
*RES
1 *874:gpio_ib_mode_sel[4] *435:7 0.449667 
2 *435:7 *435:9 293.119 
3 *435:9 gpio_ib_mode_sel[4] 29.2289 
*END

*D_NET *436 0.348897
*CONN
*P gpio_ib_mode_sel[5] O
*I *874:gpio_ib_mode_sel[5] O *D counter_gpio_config_example
*CAP
1 gpio_ib_mode_sel[5] 0.0024994
2 *874:gpio_ib_mode_sel[5] 0.0070115
3 *436:17 0.116295
4 *436:15 0.113795
5 *436:13 0.0390713
6 *436:11 0.0460828
7 gpio_ib_mode_sel[5] gpio_oeb[5] 0
8 gpio_ib_mode_sel[5] gpio_vtrip_sel[5] 0.00129584
9 *436:13 *540:13 0
10 *436:13 *541:13 0.00574885
11 *436:13 *567:27 0.00274847
12 *436:13 *717:13 0.00936119
13 *436:17 gpio_oeb[5] 0
14 *175:7 *436:11 4.31932e-05
15 *175:9 *436:11 0.00220734
16 *312:7 *436:11 4.7387e-05
17 *312:9 *436:11 0.00268994
18 *400:13 *436:13 0
*RES
1 *874:gpio_ib_mode_sel[5] *436:11 21.2645 
2 *436:11 *436:13 84.1041 
3 *436:13 *436:15 0.5 
4 *436:15 *436:17 274.124 
5 *436:17 gpio_ib_mode_sel[5] 5.84503 
*END

*D_NET *437 0.380708
*CONN
*P gpio_ib_mode_sel[6] O
*I *874:gpio_ib_mode_sel[6] O *D counter_gpio_config_example
*CAP
1 gpio_ib_mode_sel[6] 0.00678092
2 *874:gpio_ib_mode_sel[6] 0.000128671
3 *437:13 0.0429781
4 *437:11 0.0361972
5 *437:9 0.0985955
6 *437:7 0.0987241
7 gpio_ib_mode_sel[6] gpio_oeb[6] 0.00219678
8 gpio_ib_mode_sel[6] gpio_vtrip_sel[6] 0.000705564
9 *437:7 *874:gpio_in[0] 4.7387e-05
10 *437:9 *874:gpio_in[0] 0.00140577
11 *134:13 *437:13 0
12 *136:13 *437:13 0.0527392
13 *210:14 *437:13 0
14 *303:13 *437:13 0
15 *353:7 *437:7 4.7387e-05
16 *353:9 *437:7 8.0017e-06
17 *353:9 *437:9 0.0399614
18 *430:17 *437:9 0.000192285
*RES
1 *874:gpio_ib_mode_sel[6] *437:7 0.449667 
2 *437:7 *437:9 283.564 
3 *437:9 *437:11 0.5 
4 *437:11 *437:13 124.242 
5 *437:13 gpio_ib_mode_sel[6] 16.8305 
*END

*D_NET *438 0.66543
*CONN
*P gpio_ib_mode_sel[7] O
*I *874:gpio_ib_mode_sel[7] O *D counter_gpio_config_example
*CAP
1 gpio_ib_mode_sel[7] 0.00133431
2 *874:gpio_ib_mode_sel[7] 0.00135305
3 *438:13 0.16196
4 *438:11 0.160625
5 *438:9 0.0288047
6 *438:7 0.0301577
7 gpio_ib_mode_sel[7] gpio_oeb[7] 0.000399076
8 gpio_ib_mode_sel[7] gpio_vtrip_sel[7] 0.000267643
9 *438:7 *663:7 0.000226789
10 *438:9 *439:9 0.136667
11 *438:9 *569:21 0.0124175
12 *438:13 gpio_out[7] 0
13 *438:13 gpio_vtrip_sel[7] 0.0182871
14 *139:7 *438:7 0
15 *411:9 *438:9 0.00109166
16 *412:9 *438:9 0.111838
17 *414:7 *438:7 0
*RES
1 *874:gpio_ib_mode_sel[7] *438:7 3.4032 
2 *438:7 *438:9 1580.59 
3 *438:9 *438:11 0.5 
4 *438:11 *438:13 375.975 
5 *438:13 gpio_ib_mode_sel[7] 7.05997 
*END

*D_NET *439 0.720397
*CONN
*P gpio_ib_mode_sel[8] O
*I *874:gpio_ib_mode_sel[8] O *D counter_gpio_config_example
*CAP
1 gpio_ib_mode_sel[8] 0.00128268
2 *874:gpio_ib_mode_sel[8] 0.00108588
3 *439:13 0.164995
4 *439:11 0.163713
5 *439:9 0.0372877
6 *439:7 0.0383736
7 gpio_ib_mode_sel[8] gpio_oeb[8] 0
8 gpio_ib_mode_sel[8] gpio_vtrip_sel[8] 0.000858335
9 *439:7 *666:15 1.44699e-05
10 *439:9 *666:17 0.16467
11 *439:13 gpio_oeb[8] 0
12 *439:13 gpio_vtrip_sel[8] 0.00243235
13 *439:13 *764:11 0
14 *371:7 *439:7 0.000288391
15 *411:7 *439:7 0.000331035
16 *411:9 *439:9 0
17 *412:9 *439:9 0.00839745
18 *438:9 *439:9 0.136667
*RES
1 *874:gpio_ib_mode_sel[8] *439:7 3.34493 
2 *439:7 *439:9 1906.99 
3 *439:9 *439:11 0.5 
4 *439:11 *439:13 375.916 
5 *439:13 gpio_ib_mode_sel[8] 5.56037 
*END

*D_NET *440 0.695443
*CONN
*P gpio_ib_mode_sel[9] O
*I *874:gpio_ib_mode_sel[9] O *D counter_gpio_config_example
*CAP
1 gpio_ib_mode_sel[9] 7.60302e-05
2 *874:gpio_ib_mode_sel[9] 0.00435495
3 *440:13 0.159593
4 *440:11 0.159517
5 *440:9 0.0493145
6 *440:7 0.0536694
7 *440:7 gpio_slow_sel[37] 0.00072068
8 *440:13 gpio_oeb[9] 0.00805128
9 *440:13 *836:17 0
10 *157:7 *440:7 0
11 *174:7 *440:7 0
12 *178:17 *440:9 0.151928
13 *241:19 *440:9 0.00505065
14 *302:7 *440:7 5.78214e-05
15 *304:9 *440:9 0.0446337
16 *374:9 *440:9 0.0584755
*RES
1 *874:gpio_ib_mode_sel[9] *440:7 9.5212 
2 *440:7 *440:9 1715.74 
3 *440:9 *440:11 0.5 
4 *440:11 *440:13 384.665 
5 *440:13 gpio_ib_mode_sel[9] 0.2185 
*END

*D_NET *441 0.308915
*CONN
*P gpio_in[0] I
*I *874:gpio_in[0] I *D counter_gpio_config_example
*CAP
1 gpio_in[0] 9.67457e-05
2 *874:gpio_in[0] 0.00432069
3 *441:11 0.0239268
4 *441:9 0.0196061
5 *441:7 0.119745
6 *441:5 0.119842
7 *874:gpio_in[0] *463:7 0
8 *874:gpio_in[0] *557:11 0.00021433
9 *441:7 *749:29 0
10 *124:13 *441:11 0.00771335
11 *263:13 *441:11 0.0119963
12 *437:7 *874:gpio_in[0] 4.7387e-05
13 *437:9 *874:gpio_in[0] 0.00140577
*RES
1 gpio_in[0] *441:5 0.278033 
2 *441:5 *441:7 288.729 
3 *441:7 *441:9 0.5 
4 *441:9 *441:11 55.6801 
5 *441:11 *874:gpio_in[0] 11.8253 
*END

*D_NET *442 0.511744
*CONN
*P gpio_in[10] I
*I *874:gpio_in[10] I *D counter_gpio_config_example
*CAP
1 gpio_in[10] 7.33857e-05
2 *874:gpio_in[10] 0.00562074
3 *442:11 0.129034
4 *442:9 0.123413
5 *442:7 0.114071
6 *442:5 0.114144
7 *874:gpio_in[10] *874:gpio_in[11] 1.0676e-05
8 *874:gpio_in[10] *874:gpio_in[12] 0.000933114
9 *874:gpio_in[10] *443:15 0.0166474
10 *874:gpio_in[10] *445:15 0.00322775
11 *442:11 *761:21 0
12 *169:17 *874:gpio_in[10] 0.00456874
*RES
1 gpio_in[10] *442:5 0.2109 
2 *442:5 *442:7 273.958 
3 *442:7 *442:9 0.5 
4 *442:9 *442:11 2229.82 
5 *442:11 *874:gpio_in[10] 27.5344 
*END

*D_NET *443 0.680501
*CONN
*P gpio_in[11] I
*I *874:gpio_in[11] I *D counter_gpio_config_example
*CAP
1 gpio_in[11] 0.00027177
2 *874:gpio_in[11] 0.000420279
3 *443:15 0.089562
4 *443:13 0.0891417
5 *443:11 0.132151
6 *443:9 0.132151
7 *443:7 0.0271903
8 *443:5 0.0274621
9 *874:gpio_in[11] *874:gpio_in[1] 0.000387087
10 *443:15 *874:gpio_in[14] 0.000583
11 *443:15 *874:gpio_in[1] 0.000247128
12 *443:15 *447:13 0.0305701
13 *443:15 *448:9 0.0298484
14 *443:15 *483:15 0.0332629
15 *443:15 *670:9 0.00861293
16 *443:15 *683:11 0.00118454
17 *443:15 *700:9 0.0368901
18 *874:gpio_in[10] *874:gpio_in[11] 1.0676e-05
19 *874:gpio_in[10] *443:15 0.0166474
20 *169:17 *443:15 0.0239069
*RES
1 gpio_in[11] *443:5 0.717567 
2 *443:5 *443:7 61.5765 
3 *443:7 *443:9 0.5 
4 *443:9 *443:11 2396.08 
5 *443:11 *443:13 0.5 
6 *443:13 *443:15 238.145 
7 *443:15 *874:gpio_in[11] 2.28817 
*END

*D_NET *444 0.718951
*CONN
*P gpio_in[12] I
*I *874:gpio_in[12] I *D counter_gpio_config_example
*CAP
1 gpio_in[12] 0.000132884
2 *874:gpio_in[12] 0.0024939
3 *444:11 0.0804504
4 *444:9 0.0779565
5 *444:7 0.122339
6 *444:5 0.122472
7 *874:gpio_in[12] *874:gpio_in[14] 0.000607509
8 *874:gpio_in[12] *700:9 0.00060849
9 *874:gpio_in[12] *815:17 0
10 *444:7 *752:17 0
11 *444:11 *446:11 0.226796
12 *444:11 *683:13 0.0381209
13 *444:11 *826:18 0.012592
14 *874:gpio_in[10] *874:gpio_in[12] 0.000933114
15 *153:13 *444:11 0.0213707
16 *281:13 *444:11 0
17 *286:15 *444:11 0.000919206
18 *326:21 *444:11 0.00545182
19 *423:13 *444:11 0.00570518
*RES
1 gpio_in[12] *444:5 0.3629 
2 *444:5 *444:7 294.002 
3 *444:7 *444:9 0.5 
4 *444:9 *444:11 2564.39 
5 *444:11 *874:gpio_in[12] 21.1074 
*END

*D_NET *445 0.596768
*CONN
*P gpio_in[13] I
*I *874:gpio_in[13] I *D counter_gpio_config_example
*CAP
1 gpio_in[13] 6.74581e-06
2 *874:gpio_in[13] 0
3 *445:15 0.00668887
4 *445:13 0.00668887
5 *445:11 0.121507
6 *445:9 0.121507
7 *445:7 0.119326
8 *445:5 0.119333
9 *445:5 gpio_slow_sel[13] 0
10 *445:7 gpio_slow_sel[13] 0
11 *445:15 *874:gpio_in[14] 0.00256189
12 *445:15 *700:9 0.00385997
13 *874:gpio_in[10] *445:15 0.00322775
14 *277:13 *445:11 0.0920592
*RES
1 gpio_in[13] *445:5 0.0485106 
2 *445:5 *445:7 274.832 
3 *445:7 *445:9 0.5 
4 *445:9 *445:11 2902.9 
5 *445:11 *445:13 2 
6 *445:13 *445:15 155.355 
7 *445:15 *874:gpio_in[13] 2 
*END

*D_NET *446 0.780688
*CONN
*P gpio_in[14] I
*I *874:gpio_in[14] I *D counter_gpio_config_example
*CAP
1 gpio_in[14] 0.000227635
2 *874:gpio_in[14] 0.00114518
3 *446:11 0.127612
4 *446:9 0.126467
5 *446:7 0.127726
6 *446:5 0.127953
7 *874:gpio_in[14] *700:9 0.00259499
8 *446:11 *533:21 0
9 *446:11 *544:13 0
10 *446:11 *683:13 0.000112112
11 *874:gpio_in[12] *874:gpio_in[14] 0.000607509
12 *153:13 *446:11 0.0236399
13 *286:15 *446:11 0.0025636
14 *326:13 *446:11 0
15 *326:21 *446:11 0.00610519
16 *423:13 *446:11 0.0039939
17 *443:15 *874:gpio_in[14] 0.000583
18 *444:11 *446:11 0.226796
19 *445:15 *874:gpio_in[14] 0.00256189
*RES
1 gpio_in[14] *446:5 0.601033 
2 *446:5 *446:7 294.06 
3 *446:7 *446:9 0.5 
4 *446:9 *446:11 3234.4 
5 *446:11 *874:gpio_in[14] 49.285 
*END

*D_NET *447 0.789515
*CONN
*P gpio_in[15] I
*I *874:gpio_in[15] I *D counter_gpio_config_example
*CAP
1 gpio_in[15] 7.14679e-05
2 *874:gpio_in[15] 9.82315e-05
3 *447:13 0.0322399
4 *447:11 0.0321416
5 *447:9 0.187257
6 *447:7 0.187328
7 *874:gpio_in[15] *874:gpio_in[16] 0
8 *447:9 *746:13 0
9 *447:13 *874:gpio_in[1] 0.000363346
10 *447:13 *448:9 0.138731
11 *447:13 *483:15 0.180221
12 *447:13 *683:11 0.000493138
13 *443:15 *447:13 0.0305701
*RES
1 gpio_in[15] *447:7 1.35 
2 *447:7 *447:9 3398.62 
3 *447:9 *447:11 2 
4 *447:11 *447:13 1658.18 
5 *447:13 *874:gpio_in[15] 3.455 
*END

*D_NET *448 0.683685
*CONN
*P gpio_in[16] I
*I *874:gpio_in[16] I *D counter_gpio_config_example
*CAP
1 gpio_in[16] 0.187391
2 *874:gpio_in[16] 0.00011758
3 *448:9 0.0303592
4 *448:7 0.0302417
5 *448:5 0.187391
6 *874:gpio_in[16] *874:gpio_in[17] 0
7 *448:9 *450:17 0.00240419
8 *448:9 *483:15 0.000152522
9 *448:9 *670:9 0.0759907
10 *448:9 *683:11 0.00105691
11 *874:gpio_in[15] *874:gpio_in[16] 0
12 *443:15 *448:9 0.0298484
13 *447:13 *448:9 0.138731
*RES
1 gpio_in[16] *448:5 3399.84 
2 *448:5 *448:7 2 
3 *448:7 *448:9 1279.02 
4 *448:9 *874:gpio_in[16] 3.71 
*END

*D_NET *449 0.506292
*CONN
*P gpio_in[17] I
*I *874:gpio_in[17] I *D counter_gpio_config_example
*CAP
1 gpio_in[17] 0.00109664
2 *874:gpio_in[17] 0.00066096
3 *449:19 0.0627016
4 *449:17 0.0620406
5 *449:15 0.185974
6 *449:13 0.187071
7 *874:gpio_in[17] *700:9 0.00073826
8 gpio_analog_en[17] *449:15 0.00509312
9 gpio_dm0[17] *449:15 0
10 *874:gpio_in[16] *874:gpio_in[17] 0
11 *95:13 *449:13 0.000915398
*RES
1 gpio_in[17] *449:13 22.585 
2 *449:13 *449:15 3393.65 
3 *449:15 *449:17 2 
4 *449:17 *449:19 1063.57 
5 *449:19 *874:gpio_in[17] 15.7925 
*END

*D_NET *450 0.519476
*CONN
*P gpio_in[18] I
*I *874:gpio_in[18] I *D counter_gpio_config_example
*CAP
1 gpio_in[18] 0.00119737
2 *874:gpio_in[18] 0.000151819
3 *450:17 0.0239233
4 *450:15 0.0237715
5 *450:13 0.187361
6 *450:11 0.188559
7 *874:gpio_in[18] *874:gpio_in[19] 0
8 *450:17 *567:15 0.00143696
9 *450:17 *567:21 0.00139373
10 *450:17 *567:23 0.0115631
11 *450:17 *670:9 0.0765177
12 *450:17 *683:11 0.0006069
13 *450:17 *815:15 0.000590016
14 gpio_analog_en[18] *450:13 0
15 gpio_dm1[18] *450:13 0
16 *448:9 *450:17 0.00240419
*RES
1 gpio_in[18] *450:11 24.655 
2 *450:11 *450:13 3395.43 
3 *450:13 *450:15 2 
4 *450:15 *450:17 741.855 
5 *450:17 *874:gpio_in[18] 4.22 
*END

*D_NET *451 0.510592
*CONN
*P gpio_in[19] I
*I *874:gpio_in[19] I *D counter_gpio_config_example
*CAP
1 gpio_in[19] 0.00297111
2 *874:gpio_in[19] 0.000104857
3 *451:25 0.0284096
4 *451:23 0.0296028
5 *451:13 0.184814
6 *451:11 0.183516
7 *451:9 0.0265379
8 *451:7 0.0265379
9 *451:5 0.00297111
10 *874:gpio_in[19] *874:gpio_in[1] 8.28896e-05
11 *451:13 *874:gpio_in[38] 0.00566107
12 *451:13 *453:17 0
13 *451:23 *874:gpio_in[38] 0.00112753
14 *451:23 *472:15 1.88924e-05
15 *451:25 *472:15 0.0182367
16 *874:gpio_in[18] *874:gpio_in[19] 0
17 *97:17 *451:9 0
18 *236:13 *451:9 0
19 *282:29 *451:13 0
*RES
1 gpio_in[19] *451:5 53.6025 
2 *451:5 *451:7 0.5 
3 *451:7 *451:9 63.7526 
4 *451:9 *451:11 0.5 
5 *451:11 *451:13 470.638 
6 *451:13 *451:23 4.3852 
7 *451:23 *451:25 90.9771 
8 *451:25 *874:gpio_in[19] 2.1979 
*END

*D_NET *452 0.284335
*CONN
*P gpio_in[1] I
*I *874:gpio_in[1] I *D counter_gpio_config_example
*CAP
1 gpio_in[1] 0.000106883
2 *874:gpio_in[1] 0.00188519
3 *452:11 0.00981752
4 *452:9 0.00793233
5 *452:7 0.124273
6 *452:5 0.12438
7 *874:gpio_in[1] *874:gpio_in[20] 0
8 *874:gpio_in[1] *483:15 0.00057755
9 *874:gpio_in[1] *683:11 0.00320392
10 *874:gpio_in[1] *700:9 0.000107567
11 *452:7 *760:21 0
12 *452:11 *463:11 0
13 *452:11 *760:17 0.0109709
14 *874:gpio_in[11] *874:gpio_in[1] 0.000387087
15 *874:gpio_in[19] *874:gpio_in[1] 8.28896e-05
16 *443:15 *874:gpio_in[1] 0.000247128
17 *447:13 *874:gpio_in[1] 0.000363346
*RES
1 gpio_in[1] *452:5 0.307167 
2 *452:5 *452:7 298.955 
3 *452:7 *452:9 0.5 
4 *452:9 *452:11 213.285 
5 *452:11 *874:gpio_in[1] 7.57317 
*END

*D_NET *453 0.518119
*CONN
*P gpio_in[20] I
*I *874:gpio_in[20] I *D counter_gpio_config_example
*CAP
1 gpio_in[20] 7.849e-05
2 *874:gpio_in[20] 0.000119176
3 *453:17 0.151944
4 *453:15 0.16505
5 *453:9 0.0180621
6 *453:7 0.00491591
7 *874:gpio_in[20] *874:gpio_in[21] 0
8 *874:gpio_in[20] *683:11 4.59533e-05
9 *453:17 *874:gpio_in[38] 0.00358077
10 *453:17 *454:13 0.0190123
11 *453:17 *472:15 0.00577569
12 *874:gpio_in[1] *874:gpio_in[20] 0
13 *240:21 *453:17 0.0536017
14 *282:29 *453:17 0.0959327
15 *368:61 *453:15 0
16 *451:13 *453:17 0
*RES
1 gpio_in[20] *453:7 1.35 
2 *453:7 *453:9 83.745 
3 *453:9 *453:15 32.939 
4 *453:15 *453:17 559.819 
5 *453:17 *874:gpio_in[20] 2.1979 
*END

*D_NET *454 0.564072
*CONN
*P gpio_in[21] I
*I *874:gpio_in[21] I *D counter_gpio_config_example
*CAP
1 gpio_in[21] 0.000105458
2 *874:gpio_in[21] 9.84331e-05
3 *454:13 0.128997
4 *454:11 0.129004
5 *874:gpio_in[21] *874:gpio_in[22] 0
6 *874:gpio_in[21] *683:11 2.46013e-05
7 *454:11 gpio_oeb[21] 0.000181319
8 *454:13 *455:13 0.0505655
9 *874:gpio_in[20] *874:gpio_in[21] 0
10 *95:13 *454:11 0.000176867
11 *238:29 *454:13 0.0953936
12 *240:21 *454:13 0.140512
13 *453:17 *454:13 0.0190123
*RES
1 gpio_in[21] *454:11 2.34357 
2 *454:11 *454:13 573.944 
3 *454:13 *874:gpio_in[21] 2.13963 
*END

*D_NET *455 0.57678
*CONN
*P gpio_in[22] I
*I *874:gpio_in[22] I *D counter_gpio_config_example
*CAP
1 gpio_in[22] 0.00188584
2 *874:gpio_in[22] 0.000119176
3 *455:13 0.149885
4 *455:11 0.163895
5 *455:7 0.0160149
6 *874:gpio_in[22] *874:gpio_in[23] 0
7 *874:gpio_in[22] *683:11 4.59533e-05
8 *455:11 *538:13 0
9 *455:13 *456:19 0.0250653
10 *874:gpio_in[21] *874:gpio_in[22] 0
11 *238:29 *455:13 0.169303
12 *454:13 *455:13 0.0505655
*RES
1 gpio_in[22] *455:7 33.1925 
2 *455:7 *455:11 32.9634 
3 *455:11 *455:13 568.604 
4 *455:13 *874:gpio_in[22] 2.1979 
*END

*D_NET *456 0.518483
*CONN
*P gpio_in[23] I
*I *874:gpio_in[23] I *D counter_gpio_config_example
*CAP
1 gpio_in[23] 0.00207801
2 *874:gpio_in[23] 9.7998e-05
3 *456:19 0.144477
4 *456:17 0.144379
5 *456:15 0.0271665
6 *456:13 0.0271665
7 *456:11 0.0446267
8 *456:9 0.0467047
9 *874:gpio_in[23] *683:11 2.46013e-05
10 *456:11 *665:30 0.0566971
11 *874:gpio_in[22] *874:gpio_in[23] 0
12 *108:25 *456:15 0
13 *455:13 *456:19 0.0250653
*RES
1 gpio_in[23] *456:9 36.0975 
2 *456:9 *456:11 1048.2 
3 *456:11 *456:13 0.5 
4 *456:13 *456:15 64.5683 
5 *456:15 *456:17 0.5 
6 *456:17 *456:19 391.169 
7 *456:19 *874:gpio_in[23] 2.13963 
*END

*D_NET *457 0.686391
*CONN
*P gpio_in[24] I
*I *874:gpio_in[24] I *D counter_gpio_config_example
*CAP
1 gpio_in[24] 0.00346243
2 *874:gpio_in[24] 0.000520775
3 *457:23 0.00921441
4 *457:21 0.0107175
5 *457:11 0.119315
6 *457:9 0.120754
7 *874:gpio_in[24] *874:gpio_in[25] 0
8 *457:9 gpio_slow_sel[24] 0
9 *457:11 *547:9 0.212622
10 *457:11 *550:9 0.0603562
11 *457:11 *731:21 0.00269676
12 *457:11 *765:21 0.0423122
13 *457:21 *458:21 0.00762234
14 *457:21 *460:21 0.000304103
15 *457:21 *461:21 0.00706868
16 *457:21 *462:19 0.000599585
17 *457:23 *458:23 0.0479624
18 *457:23 *461:21 0.00013827
19 *457:23 *462:19 0.000117568
20 *457:23 *669:9 0.0107617
21 *133:13 *457:23 0.000236591
22 *155:21 *457:23 0.00955999
23 *168:9 *457:21 1.92979e-05
24 *342:21 *457:23 4.40693e-06
25 *404:15 *457:23 0.0200247
26 *417:9 *457:11 0
*RES
1 gpio_in[24] *457:9 7.73583 
2 *457:9 *457:11 3303.38 
3 *457:11 *457:21 15.9144 
4 *457:21 *457:23 449.985 
5 *457:23 *874:gpio_in[24] 9.32 
*END

*D_NET *458 0.490735
*CONN
*P gpio_in[25] I
*I *874:gpio_in[25] I *D counter_gpio_config_example
*CAP
1 gpio_in[25] 0.003855
2 *874:gpio_in[25] 0.000544038
3 *458:23 0.0074273
4 *458:21 0.00885748
5 *458:11 0.137419
6 *458:9 0.1393
7 *458:9 gpio_slow_sel[25] 0
8 *458:11 *467:13 0
9 *458:11 *690:17 0
10 *458:11 *777:13 0
11 *458:11 *820:13 0.0728744
12 *458:21 *460:21 0.00823789
13 *458:21 *461:21 0.00034125
14 *458:23 *460:23 0.0468815
15 *458:23 *461:21 0.000540748
16 *874:gpio_in[24] *874:gpio_in[25] 0
17 *155:21 *458:23 0.00887243
18 *457:21 *458:21 0.00762234
19 *457:23 *458:23 0.0479624
*RES
1 gpio_in[25] *458:9 8.56423 
2 *458:9 *458:11 2666.39 
3 *458:11 *458:21 16.7376 
4 *458:21 *458:23 442.05 
5 *458:23 *874:gpio_in[25] 9.575 
*END

*D_NET *459 0.479788
*CONN
*P gpio_in[26] I
*I *874:gpio_in[26] I *D counter_gpio_config_example
*CAP
1 gpio_in[26] 0.0045885
2 *874:gpio_in[26] 9.55375e-05
3 *459:23 0.0101448
4 *459:21 0.0113774
5 *459:11 0.14054
6 *459:9 0.143801
7 *459:9 *767:17 0
8 *459:11 *538:9 0
9 *459:21 *460:21 0.0013918
10 *459:21 *726:19 0.00373211
11 *459:23 *469:23 0.044478
12 *459:23 *483:15 0.00602403
13 *459:23 *670:9 0.00153422
14 *459:23 *683:11 0.00173754
15 *459:23 *690:13 0.00320572
16 *459:23 *700:9 0.00460289
17 *459:23 *726:9 0.00141823
18 *459:23 *730:9 0.000491649
19 *459:23 *730:19 0.000583037
20 *459:23 *731:9 0.0256669
21 *327:9 *459:11 0.0742526
22 *332:9 *459:11 0
23 *433:16 *459:23 0.000122837
*RES
1 gpio_in[26] *459:9 10.0842 
2 *459:9 *459:11 2503.7 
3 *459:11 *459:21 12.0406 
4 *459:21 *459:23 470.685 
5 *459:23 *874:gpio_in[26] 3.455 
*END

*D_NET *460 0.411229
*CONN
*P gpio_in[27] I
*I *874:gpio_in[27] I *D counter_gpio_config_example
*CAP
1 gpio_in[27] 0.00162542
2 *874:gpio_in[27] 0.000568622
3 *460:23 0.00756739
4 *460:21 0.0113955
5 *460:11 0.139055
6 *460:9 0.136284
7 *874:gpio_in[27] *874:gpio_in[28] 0
8 *460:21 *461:21 0.00016064
9 *460:21 *462:19 0.000548899
10 *460:21 *471:15 0.000324254
11 *460:21 *726:19 0.00175084
12 *460:21 *820:11 9.59362e-06
13 *460:21 *821:9 0.000298928
14 *460:23 *461:23 0.0444196
15 *460:23 *462:19 0.0101776
16 *123:9 *460:21 7.52874e-05
17 *309:13 *460:21 0.000152259
18 *457:21 *460:21 0.000304103
19 *458:21 *460:21 0.00823789
20 *458:23 *460:23 0.0468815
21 *459:21 *460:21 0.0013918
*RES
1 gpio_in[27] *460:9 3.73823 
2 *460:9 *460:11 2344.57 
3 *460:11 *460:21 22.7466 
4 *460:21 *460:23 432.045 
5 *460:23 *874:gpio_in[27] 9.83 
*END

*D_NET *461 0.377699
*CONN
*P gpio_in[28] I
*I *874:gpio_in[28] I *D counter_gpio_config_example
*CAP
1 gpio_in[28] 0.00432002
2 *874:gpio_in[28] 0.000589367
3 *461:23 0.0154596
4 *461:21 0.0174522
5 *461:11 0.127809
6 *461:9 0.129547
7 *874:gpio_in[28] *874:gpio_in[29] 0
8 *461:9 gpio_slow_sel[28] 0
9 *461:9 *769:11 0
10 *461:21 *462:19 0.0104549
11 *461:23 *462:19 0.0173055
12 *874:gpio_in[27] *874:gpio_in[28] 0
13 *133:13 *461:21 0.00173471
14 *155:19 *461:21 3.59531e-06
15 *309:13 *461:21 0.000334719
16 *332:9 *461:11 0
17 *384:9 *461:21 1.83114e-05
18 *457:21 *461:21 0.00706868
19 *457:23 *461:21 0.00013827
20 *458:21 *461:21 0.00034125
21 *458:23 *461:21 0.000540748
22 *460:21 *461:21 0.00016064
23 *460:23 *461:23 0.0444196
*RES
1 gpio_in[28] *461:9 9.52943 
2 *461:9 *461:11 2180.86 
3 *461:11 *461:21 19.6654 
4 *461:21 *461:23 409.275 
5 *461:23 *874:gpio_in[28] 10.085 
*END

*D_NET *462 0.408783
*CONN
*P gpio_in[29] I
*I *874:gpio_in[29] I *D counter_gpio_config_example
*CAP
1 gpio_in[29] 0.00275176
2 *874:gpio_in[29] 0.00059772
3 *462:19 0.0167107
4 *462:17 0.016113
5 *462:15 0.113975
6 *462:13 0.116727
7 *874:gpio_in[29] *874:gpio_in[2] 0
8 *462:15 gpio_inp_dis[37] 0.000403831
9 *462:15 gpio_oeb[32] 0
10 *462:15 gpio_out[31] 0
11 *462:15 gpio_vtrip_sel[31] 0.000724371
12 *462:15 *558:20 0
13 *462:19 *674:11 0.00185007
14 *462:19 *726:19 0
15 *462:19 *813:9 0.0418258
16 *462:19 *827:9 0.0124375
17 gpio_analog_en[30] *462:15 0.000182889
18 gpio_analog_en[33] *462:15 0.000138699
19 gpio_analog_sel[30] *462:15 9.45007e-05
20 gpio_dm0[35] *462:15 9.45007e-05
21 gpio_dm1[29] *462:13 0.000271268
22 gpio_holdover[30] *462:15 0.000182889
23 gpio_holdover[33] *462:15 9.45007e-05
24 *874:gpio_in[28] *874:gpio_in[29] 0
25 *133:13 *462:19 2.87788e-05
26 *155:21 *462:19 0.0443736
27 *457:21 *462:19 0.000599585
28 *457:23 *462:19 0.000117568
29 *460:21 *462:19 0.000548899
30 *460:23 *462:19 0.0101776
31 *461:21 *462:19 0.0104549
32 *461:23 *462:19 0.0173055
*RES
1 gpio_in[29] *462:13 30.129 
2 *462:13 *462:15 1994.7 
3 *462:15 *462:17 0.5 
4 *462:17 *462:19 90.9923 
5 *462:19 *874:gpio_in[29] 8.7125 
*END

*D_NET *463 0.333438
*CONN
*P gpio_in[2] I
*I *874:gpio_in[2] I *D counter_gpio_config_example
*CAP
1 gpio_in[2] 0.000275608
2 *874:gpio_in[2] 0.00221018
3 *463:11 0.0169083
4 *463:9 0.0146981
5 *463:7 0.122763
6 *463:5 0.123039
7 *874:gpio_in[2] *874:gpio_in[30] 0
8 *874:gpio_in[2] *874:gpio_in[3] 0.00348221
9 *874:gpio_in[2] *683:11 0.000113611
10 *874:gpio_in[2] *760:15 3.92474e-05
11 *874:gpio_in[2] *771:11 0.00595385
12 *874:gpio_in[2] *782:27 0.000737505
13 *463:7 *557:11 0.000136066
14 *463:11 *549:13 0
15 *463:11 *557:13 1.75432e-05
16 *874:gpio_in[0] *463:7 0
17 *874:gpio_in[29] *874:gpio_in[2] 0
18 *126:13 *463:11 0.0226369
19 *335:13 *463:11 0.00214992
20 *337:13 *463:11 0.00130856
21 *345:9 *463:7 0
22 *378:15 *463:11 0.000103095
23 *394:9 *463:7 0.016866
24 *422:13 *463:11 0
25 *452:11 *463:11 0
*RES
1 gpio_in[2] *463:5 0.7277 
2 *463:5 *463:7 298.43 
3 *463:7 *463:9 0.5 
4 *463:9 *463:11 382.095 
5 *463:11 *874:gpio_in[2] 15.1341 
*END

*D_NET *464 0.364003
*CONN
*P gpio_in[30] I
*I *874:gpio_in[30] I *D counter_gpio_config_example
*CAP
1 gpio_in[30] 0.00511366
2 *874:gpio_in[30] 0.000103744
3 *464:19 0.0790293
4 *464:17 0.0789255
5 *464:15 0.0356923
6 *464:13 0.0356923
7 *464:11 0.0173286
8 *464:9 0.0224423
9 *874:gpio_in[30] *874:gpio_in[31] 0
10 *874:gpio_in[30] *683:11 2.46013e-05
11 *464:19 *465:19 0.0108095
12 *464:19 *465:25 0.0054471
13 *464:19 *465:27 0.0170204
14 *464:19 *467:19 0
15 *874:gpio_in[2] *874:gpio_in[30] 0
16 *146:29 *464:19 0.00864291
17 *285:9 *464:11 0.00341924
18 *361:9 *464:11 0
19 *414:9 *464:11 0.0443117
*RES
1 gpio_in[30] *464:9 10.7936 
2 *464:9 *464:11 499.905 
3 *464:11 *464:13 0.5 
4 *464:13 *464:15 82.2814 
5 *464:15 *464:17 0.5 
6 *464:17 *464:19 228.636 
7 *464:19 *874:gpio_in[30] 2.13963 
*END

*D_NET *465 0.341354
*CONN
*P gpio_in[31] I
*I *874:gpio_in[31] I *D counter_gpio_config_example
*CAP
1 gpio_in[31] 0.021477
2 *874:gpio_in[31] 0.000129097
3 *465:27 0.0240223
4 *465:25 0.0294463
5 *465:19 0.0232278
6 *465:17 0.0376736
7 *465:11 0.0461187
8 *465:9 0.0475968
9 *874:gpio_in[31] *874:gpio_in[32] 0
10 *874:gpio_in[31] *683:11 4.59533e-05
11 *465:9 gpio_slow_sel[31] 0
12 *465:11 *667:5 0
13 *465:11 *721:13 0.066751
14 *465:17 *481:17 0
15 *465:19 *466:21 0.00236985
16 *465:19 *467:19 0
17 *465:19 *542:25 0.00382472
18 *465:25 *466:21 0
19 *465:25 *466:25 0
20 *465:25 *466:27 0
21 *465:27 *466:27 0.00539381
22 *874:gpio_in[30] *874:gpio_in[31] 0
23 *464:19 *465:19 0.0108095
24 *464:19 *465:25 0.0054471
25 *464:19 *465:27 0.0170204
*RES
1 gpio_in[31] *465:9 47.2609 
2 *465:9 *465:11 753.375 
3 *465:11 *465:17 47.0978 
4 *465:17 *465:19 54.6592 
5 *465:19 *465:25 18.7011 
6 *465:25 *465:27 84.8591 
7 *465:27 *874:gpio_in[31] 2.1979 
*END

*D_NET *466 0.254965
*CONN
*P gpio_in[32] I
*I *874:gpio_in[32] I *D counter_gpio_config_example
*CAP
1 gpio_in[32] 0.000150959
2 *874:gpio_in[32] 0.000103744
3 *466:27 0.0259247
4 *466:25 0.0276756
5 *466:21 0.0148977
6 *466:17 0.0193909
7 *466:11 0.020573
8 *466:9 0.0142251
9 *466:7 0.034245
10 *466:5 0.034396
11 *874:gpio_in[32] *874:gpio_in[33] 0
12 *874:gpio_in[32] *683:11 2.46013e-05
13 *466:7 *754:17 0.000731642
14 *466:7 *774:9 0
15 *466:11 *765:13 0.00547313
16 *466:11 *766:5 0.0191873
17 *466:17 *536:13 0
18 *466:17 *803:9 0
19 *466:21 *467:19 0.00877185
20 *466:25 *467:19 0.00319538
21 *466:27 *467:19 0.0182345
22 *874:gpio_in[31] *874:gpio_in[32] 0
23 *465:19 *466:21 0.00236985
24 *465:25 *466:21 0
25 *465:25 *466:25 0
26 *465:25 *466:27 0
27 *465:27 *466:27 0.00539381
*RES
1 gpio_in[32] *466:5 0.433833 
2 *466:5 *466:7 77.368 
3 *466:7 *466:9 0.5 
4 *466:9 *466:11 375.465 
5 *466:11 *466:17 15.2259 
6 *466:17 *466:21 44.4245 
7 *466:21 *466:25 6.42707 
8 *466:25 *466:27 90.9771 
9 *466:27 *874:gpio_in[32] 2.13963 
*END

*D_NET *467 0.236287
*CONN
*P gpio_in[33] I
*I *874:gpio_in[33] I *D counter_gpio_config_example
*CAP
1 gpio_in[33] 0.00428194
2 *874:gpio_in[33] 0.000129097
3 *467:19 0.0534156
4 *467:17 0.0532865
5 *467:15 0.0361936
6 *467:13 0.0404755
7 *874:gpio_in[33] *874:gpio_in[34] 0
8 *874:gpio_in[33] *683:11 4.59533e-05
9 *467:13 *548:9 0
10 *467:13 *818:9 3.12141e-05
11 *467:15 gpio_slow_sel[33] 0.000819406
12 *467:15 *746:9 0.00738121
13 *467:19 *468:19 0.00943567
14 gpio_dm1[33] *467:15 0.000589483
15 *874:gpio_in[32] *874:gpio_in[33] 0
16 *373:15 *467:15 0
17 *458:11 *467:13 0
18 *464:19 *467:19 0
19 *465:19 *467:19 0
20 *466:21 *467:19 0.00877185
21 *466:25 *467:19 0.00319538
22 *466:27 *467:19 0.0182345
*RES
1 gpio_in[33] *467:13 20.9566 
2 *467:13 *467:15 84.2625 
3 *467:15 *467:17 0.5 
4 *467:17 *467:19 175.405 
5 *467:19 *874:gpio_in[33] 2.1979 
*END

*D_NET *468 0.215073
*CONN
*P gpio_in[34] I
*I *874:gpio_in[34] I *D counter_gpio_config_example
*CAP
1 gpio_in[34] 0.0213875
2 *874:gpio_in[34] 0.000101876
3 *468:19 0.0562074
4 *468:17 0.0715887
5 *468:13 0.0368707
6 *874:gpio_in[34] *683:11 2.46013e-05
7 *468:13 gpio_slow_sel[34] 0
8 *468:13 *721:13 0
9 *468:13 *789:5 0.000237992
10 *468:17 gpio_slow_sel[34] 6.18537e-05
11 *468:17 *568:9 0.019024
12 *874:gpio_in[33] *874:gpio_in[34] 0
13 *190:33 *468:19 0.000132553
14 *467:19 *468:19 0.00943567
*RES
1 gpio_in[34] *468:13 49.9042 
2 *468:13 *468:17 45.7821 
3 *468:17 *468:19 149.135 
4 *468:19 *874:gpio_in[34] 2.13963 
*END

*D_NET *469 0.222016
*CONN
*P gpio_in[35] I
*I *874:gpio_in[35] I *D counter_gpio_config_example
*CAP
1 gpio_in[35] 0.00783642
2 *874:gpio_in[35] 0.000112473
3 *469:23 0.00714354
4 *469:21 0.00900306
5 *469:11 0.0421186
6 *469:9 0.0479831
7 *469:21 *690:13 0.000469363
8 *469:21 *730:19 0.00284183
9 *469:21 *778:13 0
10 *469:23 *567:15 0.00560019
11 *469:23 *670:9 0.00943976
12 *469:23 *683:11 0.00224935
13 *469:23 *690:13 0.00532852
14 *469:23 *727:19 0.000266333
15 *469:23 *730:9 0.0211864
16 *123:9 *469:21 3.00027e-05
17 *150:9 *469:11 0.0159286
18 *183:9 *469:11 0
19 *191:9 *469:11 0
20 *272:9 *469:11 0
21 *314:9 *469:11 0
22 *459:23 *469:23 0.044478
*RES
1 gpio_in[35] *469:9 16.2529 
2 *469:9 *469:11 725.325 
3 *469:11 *469:21 9.49063 
4 *469:21 *469:23 410.31 
5 *469:23 *874:gpio_in[35] 3.71 
*END

*D_NET *470 0.205386
*CONN
*P gpio_in[36] I
*I *874:gpio_in[36] I *D counter_gpio_config_example
*CAP
1 gpio_in[36] 0.0102139
2 *874:gpio_in[36] 0.000334323
3 *470:15 0.0128713
4 *470:13 0.012537
5 *470:11 0.014644
6 *470:9 0.0248579
7 *874:gpio_in[36] *874:gpio_in[37] 0
8 *470:11 *731:19 0
9 *470:11 *821:13 0.0289021
10 *470:15 *874:gpio_in[3] 0.000795624
11 *470:15 *471:15 0.00425382
12 *470:15 *690:11 6.66384e-05
13 *470:15 *690:13 0.00100552
14 *470:15 *738:15 0.0069091
15 *470:15 *771:11 0.0032222
16 *470:15 *777:9 0.000501541
17 *470:15 *778:11 0.017033
18 *470:15 *782:15 0.00268182
19 *470:15 *820:11 0.00285164
20 *470:15 *821:9 0.0365582
21 *95:9 *470:11 0.0152981
22 *96:9 *470:11 0.00427115
23 *197:9 *470:11 0.00187854
24 *249:9 *470:11 0.00241659
25 *274:9 *470:11 0
26 *325:9 *470:11 0.00128176
*RES
1 gpio_in[36] *470:9 20.5697 
2 *470:9 *470:11 568.245 
3 *470:11 *470:13 0.5 
4 *470:13 *470:15 70.0745 
5 *470:15 *874:gpio_in[36] 5.1425 
*END

*D_NET *471 0.176829
*CONN
*P gpio_in[37] I
*I *874:gpio_in[37] I *D counter_gpio_config_example
*CAP
1 gpio_in[37] 0.00685514
2 *874:gpio_in[37] 0.000400415
3 *471:15 0.01349
4 *471:13 0.0130896
5 *471:11 0.0173084
6 *471:9 0.0241635
7 *874:gpio_in[37] *874:gpio_in[39] 0
8 *471:9 gpio_slow_sel[37] 0.0130746
9 *471:11 *731:19 0
10 *471:15 *874:gpio_in[3] 0.000544494
11 *471:15 *821:9 0.0361012
12 *874:gpio_in[36] *874:gpio_in[37] 0
13 *123:9 *471:11 0
14 *154:9 *471:11 0.00178542
15 *155:19 *471:15 0.000246843
16 *157:7 *471:9 0.00108786
17 *204:9 *471:11 0.00438308
18 *274:9 *471:11 0
19 *309:9 *471:11 0.00182632
20 *309:13 *471:15 0.0237142
21 *342:19 *471:15 4.12356e-05
22 *377:9 *471:11 0.014139
23 *460:21 *471:15 0.000324254
24 *470:15 *471:15 0.00425382
*RES
1 gpio_in[37] *471:9 21.9022 
2 *471:9 *471:11 403.515 
3 *471:11 *471:13 0.5 
4 *471:13 *471:15 68.9675 
5 *471:15 *874:gpio_in[37] 6.1625 
*END

*D_NET *472 0.136905
*CONN
*P gpio_in[38] I
*I *874:gpio_in[38] I *D counter_gpio_config_example
*CAP
1 gpio_in[38] 0.000209985
2 *874:gpio_in[38] 0.0106979
3 *472:15 0.0385021
4 *472:13 0.0291901
5 *472:7 0.00984175
6 *472:5 0.00866579
7 *874:gpio_in[38] *740:18 0.000503144
8 *874:gpio_in[38] *826:14 0.00109786
9 *472:7 gpio_slow_sel[38] 0
10 *472:13 *477:11 0.000667217
11 *410:19 *874:gpio_in[38] 0.00232163
12 *428:15 *472:13 0.000807025
13 *451:13 *874:gpio_in[38] 0.00566107
14 *451:23 *874:gpio_in[38] 0.00112753
15 *451:23 *472:15 1.88924e-05
16 *451:25 *472:15 0.0182367
17 *453:17 *874:gpio_in[38] 0.00358077
18 *453:17 *472:15 0.00577569
*RES
1 gpio_in[38] *472:5 3.8625 
2 *472:5 *472:7 149.685 
3 *472:7 *472:13 5.78673 
4 *472:13 *472:15 95.3699 
5 *472:15 *874:gpio_in[38] 40.0289 
*END

*D_NET *473 0.0961373
*CONN
*P gpio_in[39] I
*I *874:gpio_in[39] I *D counter_gpio_config_example
*CAP
1 gpio_in[39] 0.000254021
2 *874:gpio_in[39] 0.00448845
3 *473:13 0.00448845
4 *473:11 0.0231118
5 *473:9 0.0231118
6 *473:7 0.00573456
7 *473:5 0.00598858
8 *874:gpio_in[39] *874:gpio_in[3] 0
9 *473:11 *741:9 0
10 *874:gpio_in[37] *874:gpio_in[39] 0
11 *212:13 *473:5 0.00022438
12 *258:17 *473:11 0.0287351
*RES
1 gpio_in[39] *473:5 4.6725 
2 *473:5 *473:7 101.235 
3 *473:7 *473:9 0.5 
4 *473:9 *473:11 70.9485 
5 *473:11 *473:13 0.5 
6 *473:13 *874:gpio_in[39] 75.5325 
*END

*D_NET *474 0.385392
*CONN
*P gpio_in[3] I
*I *874:gpio_in[3] I *D counter_gpio_config_example
*CAP
1 gpio_in[3] 0.000203849
2 *874:gpio_in[3] 0.00400201
3 *474:11 0.0194626
4 *474:9 0.0154606
5 *474:7 0.116743
6 *474:5 0.116947
7 *874:gpio_in[3] *874:gpio_in[40] 0
8 *874:gpio_in[3] *683:11 0
9 *874:gpio_in[3] *771:11 0.000704794
10 *474:11 *672:13 0.0241182
11 *474:11 *782:29 0.0476294
12 *874:gpio_in[2] *874:gpio_in[3] 0.00348221
13 *874:gpio_in[39] *874:gpio_in[3] 0
14 *254:15 *474:7 0.00318597
15 *278:13 *474:11 0
16 *309:13 *874:gpio_in[3] 0.00337904
17 *315:9 *474:7 0
18 *319:11 *474:7 0.0287329
19 *470:15 *874:gpio_in[3] 0.000795624
20 *471:15 *874:gpio_in[3] 0.000544494
*RES
1 gpio_in[3] *474:5 0.585833 
2 *474:5 *474:7 297.498 
3 *474:7 *474:9 0.5 
4 *474:9 *474:11 553.455 
5 *474:11 *874:gpio_in[3] 21.165 
*END

*D_NET *475 0.144726
*CONN
*P gpio_in[40] I
*I *874:gpio_in[40] I *D counter_gpio_config_example
*CAP
1 gpio_in[40] 0.000172473
2 *874:gpio_in[40] 0.005107
3 *475:13 0.005107
4 *475:11 0.0307844
5 *475:9 0.0307844
6 *475:7 0.00532161
7 *475:5 0.00549408
8 *874:gpio_in[40] *874:gpio_in[41] 0
9 *874:gpio_in[40] *738:15 6.16289e-05
10 *475:11 *560:15 0
11 *874:gpio_in[3] *874:gpio_in[40] 0
12 *213:17 *475:11 0.0554564
13 *384:13 *475:11 0.00643731
14 *390:17 *475:11 0
*RES
1 gpio_in[40] *475:5 3.1725 
2 *475:5 *475:7 91.035 
3 *475:7 *475:9 0.5 
4 *475:9 *475:11 106.724 
5 *475:11 *475:13 0.5 
6 *475:13 *874:gpio_in[40] 85.7325 
*END

*D_NET *476 0.140537
*CONN
*P gpio_in[41] I
*I *874:gpio_in[41] I *D counter_gpio_config_example
*CAP
1 gpio_in[41] 0.00225436
2 *874:gpio_in[41] 0.00796761
3 *476:13 0.00796761
4 *476:11 0.0600464
5 *476:9 0.0623008
6 *874:gpio_in[41] *874:gpio_in[42] 0
7 *476:11 *566:10 0
8 *476:11 *824:16 0
9 *476:11 *830:9 0
10 *874:gpio_in[40] *874:gpio_in[41] 0
11 *121:17 *476:11 0
*RES
1 gpio_in[41] *476:9 40.6775 
2 *476:9 *476:11 142.092 
3 *476:11 *476:13 0.5 
4 *476:13 *874:gpio_in[41] 138.262 
*END

*D_NET *477 0.178666
*CONN
*P gpio_in[42] I
*I *874:gpio_in[42] I *D counter_gpio_config_example
*CAP
1 gpio_in[42] 9.37797e-06
2 *874:gpio_in[42] 0.00161025
3 *477:11 0.0759305
4 *477:9 0.0743203
5 *477:7 0.00845022
6 *477:5 0.0084596
7 *874:gpio_in[42] *874:gpio_in[43] 0
8 *477:11 *695:14 0
9 *477:11 *711:19 0.009219
10 *477:11 *717:9 0
11 *874:gpio_in[41] *874:gpio_in[42] 0
12 *388:17 *477:11 0
13 *428:15 *477:11 0
14 *472:13 *477:11 0.000667217
*RES
1 gpio_in[42] *477:5 0.1725 
2 *477:5 *477:7 152.235 
3 *477:7 *477:9 0.5 
4 *477:9 *477:11 177.46 
5 *477:11 *874:gpio_in[42] 25.0325 
*END

*D_NET *478 0.20449
*CONN
*P gpio_in[43] I
*I *874:gpio_in[43] I *D counter_gpio_config_example
*CAP
1 gpio_in[43] 0.000403301
2 *874:gpio_in[43] 0.00970248
3 *478:11 0.00970248
4 *478:9 0.0901363
5 *478:7 0.0905396
6 *874:gpio_in[43] *874:gpio_in[4] 0
7 *478:9 *565:13 0
8 *478:9 *828:13 0
9 gpio_dm0[41] *478:9 6.49089e-05
10 gpio_dm0[42] *478:9 0.00394084
11 gpio_dm2[42] *478:9 0
12 gpio_ib_mode_sel[39] *478:9 0
13 *874:gpio_in[42] *874:gpio_in[43] 0
*RES
1 gpio_in[43] *478:7 7.8425 
2 *478:7 *478:9 212.595 
3 *478:9 *478:11 0.5 
4 *478:11 *874:gpio_in[43] 169.372 
*END

*D_NET *479 0.497818
*CONN
*P gpio_in[4] I
*I *874:gpio_in[4] I *D counter_gpio_config_example
*CAP
1 gpio_in[4] 0.000120174
2 *874:gpio_in[4] 0.000236352
3 *479:15 0.00247212
4 *479:13 0.00223576
5 *479:11 0.0289411
6 *479:9 0.0289411
7 *479:7 0.072325
8 *479:5 0.0724452
9 *874:gpio_in[4] *874:gpio_in[5] 0
10 *479:11 *531:13 0.000823669
11 *479:11 *533:19 0.000866358
12 *479:11 *561:13 0.006211
13 *479:11 *716:23 0.0405192
14 *479:15 *567:21 0.000788085
15 *479:15 *567:23 0.000570143
16 *479:15 *727:21 0.00981321
17 *479:15 *738:17 0.0109339
18 *479:15 *771:11 0.00161011
19 *874:gpio_in[43] *874:gpio_in[4] 0
20 *148:13 *479:11 0
21 *149:13 *479:11 0
22 *205:13 *479:11 0
23 *216:9 *479:7 0.0368274
24 *282:13 *479:11 0
25 *351:9 *479:7 0.181138
*RES
1 gpio_in[4] *479:5 0.3173 
2 *479:5 *479:7 294.934 
3 *479:7 *479:9 0.5 
4 *479:9 *479:11 721.883 
5 *479:11 *479:13 2 
6 *479:13 *479:15 116.025 
7 *479:15 *874:gpio_in[4] 5.24 
*END

*D_NET *480 0.391753
*CONN
*P gpio_in[5] I
*I *874:gpio_in[5] I *D counter_gpio_config_example
*CAP
1 gpio_in[5] 0.00346229
2 *874:gpio_in[5] 0.000129097
3 *480:19 0.0503038
4 *480:17 0.0501747
5 *480:15 0.130923
6 *480:13 0.130923
7 *480:11 0.00243043
8 *480:9 0.00589272
9 *874:gpio_in[5] *874:gpio_in[6] 0
10 *874:gpio_in[5] *683:11 4.59533e-05
11 *480:9 *568:9 0
12 *480:11 *700:13 0.00628147
13 *480:19 *481:19 0.00212931
14 *480:19 *481:25 0.0036656
15 *480:19 *481:27 0.00539189
16 *874:gpio_in[4] *874:gpio_in[5] 0
17 *228:13 *480:15 0
18 *229:13 *480:15 0
*RES
1 gpio_in[5] *480:9 7.66363 
2 *480:9 *480:11 70.485 
3 *480:11 *480:13 0.5 
4 *480:13 *480:15 308.531 
5 *480:15 *480:17 0.5 
6 *480:17 *480:19 137.679 
7 *480:19 *874:gpio_in[5] 2.1979 
*END

*D_NET *481 0.413089
*CONN
*P gpio_in[6] I
*I *874:gpio_in[6] I *D counter_gpio_config_example
*CAP
1 gpio_in[6] 0.000207375
2 *874:gpio_in[6] 0.000101876
3 *481:27 0.0313559
4 *481:25 0.0370547
5 *481:19 0.0273183
6 *481:17 0.0306468
7 *481:11 0.0155838
8 *481:9 0.00645467
9 *481:7 0.125126
10 *481:5 0.125334
11 *874:gpio_in[6] *683:11 2.46013e-05
12 *481:7 *668:9 0
13 *481:11 *531:13 0.00245749
14 *481:11 *533:21 0
15 *874:gpio_in[5] *874:gpio_in[6] 0
16 *122:193 *481:25 0.00023627
17 *149:13 *481:11 0
18 *465:17 *481:17 0
19 *480:19 *481:19 0.00212931
20 *480:19 *481:25 0.0036656
21 *480:19 *481:27 0.00539189
*RES
1 gpio_in[6] *481:5 0.595967 
2 *481:5 *481:7 294.934 
3 *481:7 *481:9 0.5 
4 *481:9 *481:11 116.895 
5 *481:11 *481:17 21.4022 
6 *481:17 *481:19 55.5205 
7 *481:19 *481:25 18.7011 
8 *481:25 *481:27 84.8591 
9 *481:27 *874:gpio_in[6] 2.13963 
*END

*D_NET *482 0.749045
*CONN
*P gpio_in[7] I
*I *874:gpio_in[7] I *D counter_gpio_config_example
*CAP
1 gpio_in[7] 0.00245734
2 *874:gpio_in[7] 0.000435655
3 *482:15 0.0273103
4 *482:13 0.0268746
5 *482:11 0.0804611
6 *482:9 0.0829184
7 *482:9 gpio_slow_sel[7] 0
8 *482:9 *790:9 0
9 *482:11 *744:13 0.0809209
10 *482:15 *484:15 0.199022
11 *309:13 *482:15 0.0485019
12 *342:21 *482:15 0.200143
*RES
1 gpio_in[7] *482:9 5.34057 
2 *482:9 *482:11 1729.13 
3 *482:11 *482:13 2 
4 *482:13 *482:15 1841.37 
5 *482:15 *874:gpio_in[7] 8.3 
*END

*D_NET *483 0.872458
*CONN
*P gpio_in[8] I
*I *874:gpio_in[8] I *D counter_gpio_config_example
*CAP
1 gpio_in[8] 0.00346026
2 *874:gpio_in[8] 7.46874e-05
3 *483:15 0.0288575
4 *483:13 0.0287828
5 *483:11 0.0336024
6 *483:9 0.0370627
7 *483:11 *484:11 0.167429
8 *483:11 *700:13 0.0834288
9 *483:11 *835:21 0.0553845
10 *483:15 *670:9 0.00116966
11 *483:15 *683:11 0.00045461
12 *483:15 *700:9 0.199269
13 gpio_ib_mode_sel[4] *483:11 0.00246191
14 *874:gpio_in[1] *483:15 0.00057755
15 *89:13 *483:11 0.00808316
16 *188:13 *483:11 0.00151223
17 *348:13 *483:11 0.00118736
18 *443:15 *483:15 0.0332629
19 *447:13 *483:15 0.180221
20 *448:9 *483:15 0.000152522
21 *459:23 *483:15 0.00602403
*RES
1 gpio_in[8] *483:9 7.66363 
2 *483:9 *483:11 1889.78 
3 *483:11 *483:13 2 
4 *483:13 *483:15 1833.78 
5 *483:15 *874:gpio_in[8] 3.2 
*END

*D_NET *484 0.834618
*CONN
*P gpio_in[9] I
*I *874:gpio_in[9] I *D counter_gpio_config_example
*CAP
1 gpio_in[9] 0.00334586
2 *874:gpio_in[9] 0.000452722
3 *484:15 0.0383618
4 *484:13 0.0379091
5 *484:11 0.0743892
6 *484:9 0.0777351
7 *484:9 gpio_slow_sel[9] 0
8 *484:11 *835:21 0.00264928
9 *89:13 *484:11 0.00938872
10 *309:13 *484:15 0.0570389
11 *342:21 *484:15 0.000306744
12 *348:13 *484:11 0.0249936
13 *404:15 *484:15 0.141597
14 *482:15 *484:15 0.199022
15 *483:11 *484:11 0.167429
*RES
1 gpio_in[9] *484:9 7.36723 
2 *484:9 *484:11 2065.99 
3 *484:11 *484:13 2 
4 *484:13 *484:15 1835.85 
5 *484:15 *874:gpio_in[9] 8.555 
*END

*D_NET *529 0.459774
*CONN
*P gpio_inp_dis[0] O
*I *874:gpio_inp_dis[0] O *D counter_gpio_config_example
*CAP
1 gpio_inp_dis[0] 0.00114127
2 *874:gpio_inp_dis[0] 0.00274254
3 *529:17 0.00437152
4 *529:15 0.00323026
5 *529:13 0.101909
6 *529:11 0.101909
7 *529:9 0.0182525
8 *529:7 0.0209951
9 *529:9 *691:13 0
10 *529:13 *564:10 0
11 *529:13 *674:11 0.0265269
12 *529:13 *701:9 0.057832
13 *529:13 *714:19 8.67502e-05
14 *529:13 *813:9 0.00509482
15 *529:13 *819:11 0.0218554
16 *529:13 *827:9 0.0331492
17 *529:13 *832:9 0
18 *529:17 *833:13 0
19 gpio_analog_pol[0] gpio_inp_dis[0] 0.00085807
20 *133:13 *529:13 2.63053e-05
21 *133:17 *529:17 0.00363684
22 *155:21 *529:13 0.0330748
23 *168:9 *529:9 0.0212444
24 *173:7 *529:7 0.000694263
25 *207:7 *529:7 0.000694263
26 *309:17 *529:17 0
27 *349:9 *529:9 0.000448027
*RES
1 *874:gpio_inp_dis[0] *529:7 6.95747 
2 *529:7 *529:9 440.745 
3 *529:9 *529:11 0.5 
4 *529:11 *529:13 379.529 
5 *529:13 *529:15 0.5 
6 *529:15 *529:17 77.625 
7 *529:17 gpio_inp_dis[0] 3.33417 
*END

*D_NET *530 0.495237
*CONN
*P gpio_inp_dis[10] O
*I *874:gpio_inp_dis[10] O *D counter_gpio_config_example
*CAP
1 gpio_inp_dis[10] 2.49027e-05
2 *874:gpio_inp_dis[10] 0.000134173
3 *530:17 0.0800762
4 *530:15 0.0800513
5 *530:13 0.120061
6 *530:11 0.120061
7 *530:9 0.0395601
8 *530:7 0.0396943
9 gpio_analog_pol[10] *530:17 0
10 *138:7 *530:7 0
11 *138:7 *530:9 0
12 *138:9 *530:9 0
13 *178:21 *530:17 0
14 *181:7 *530:7 4.7387e-05
15 *181:9 *530:7 6.84348e-06
16 *181:9 *530:9 0.0154854
17 *222:17 *530:17 0
18 *236:7 *530:7 3.39034e-05
*RES
1 *874:gpio_inp_dis[10] *530:7 0.449667 
2 *530:7 *530:9 111.211 
3 *530:9 *530:11 0.5 
4 *530:11 *530:13 303.916 
5 *530:13 *530:15 0.5 
6 *530:15 *530:17 188.394 
7 *530:17 gpio_inp_dis[10] 0.0715667 
*END

*D_NET *531 0.667094
*CONN
*P gpio_inp_dis[11] O
*I *874:gpio_inp_dis[11] O *D counter_gpio_config_example
*CAP
1 gpio_inp_dis[11] 0.00254077
2 *874:gpio_inp_dis[11] 0.00242256
3 *531:17 0.0863242
4 *531:15 0.0837835
5 *531:13 0.0812908
6 *531:11 0.0837133
7 *531:13 *716:23 0.000472724
8 *106:11 *531:11 0.000390867
9 *109:13 *531:13 0
10 *135:15 gpio_inp_dis[11] 0.00078851
11 *135:15 *531:17 0.187721
12 *148:11 *531:11 0
13 *156:13 *531:13 0.103967
14 *313:9 *531:11 0
15 *326:21 *531:13 0
16 *415:13 *531:13 0.030325
17 *427:11 *531:11 7.2422e-05
18 *479:11 *531:13 0.000823669
19 *481:11 *531:13 0.00245749
*RES
1 *874:gpio_inp_dis[11] *531:11 5.41564 
2 *531:11 *531:13 296.251 
3 *531:13 *531:15 0.5 
4 *531:15 *531:17 289.856 
5 *531:17 gpio_inp_dis[11] 5.73357 
*END

*D_NET *532 0.684734
*CONN
*P gpio_inp_dis[12] O
*I *874:gpio_inp_dis[12] O *D counter_gpio_config_example
*CAP
1 gpio_inp_dis[12] 7.77933e-05
2 *874:gpio_inp_dis[12] 0.00443699
3 *532:23 0.156698
4 *532:21 0.15662
5 *532:19 0.078557
6 *532:17 0.082994
7 *532:17 *534:28 0.000128756
8 *532:17 *571:16 0.000128756
9 *532:17 *664:18 0.000354371
10 *532:17 *665:20 0.000732676
11 *532:17 *665:22 0.000354371
12 gpio_analog_pol[12] *532:23 0.000551824
13 *129:9 *532:17 0.00341692
14 *129:9 *532:19 0.00285
15 *135:11 *532:17 0.000212642
16 *139:9 *532:19 0
17 *142:9 *532:19 0.0238812
18 *143:9 *532:19 0.00349787
19 *144:12 *532:17 0.000484367
20 *147:19 *532:19 0.00129927
21 *190:9 *532:19 0.000902531
22 *224:13 *532:23 0
23 *225:9 *532:19 0
24 *266:15 *532:17 0
25 *271:7 *532:17 0.000174776
26 *288:7 *532:17 1.77524e-05
27 *302:9 *532:19 0.00159579
28 *309:7 *532:17 0.000110047
29 *324:17 *532:19 0.159101
30 *344:17 *532:17 1.93324e-06
31 *391:9 *532:19 0.0055532
32 *433:10 *532:17 0
*RES
1 *874:gpio_inp_dis[12] *532:17 14.6201 
2 *532:17 *532:19 2231.35 
3 *532:19 *532:21 0.5 
4 *532:21 *532:23 376.333 
5 *532:23 gpio_inp_dis[12] 0.223567 
*END

*D_NET *533 0.74811
*CONN
*P gpio_inp_dis[13] O
*I *874:gpio_inp_dis[13] O *D counter_gpio_config_example
*CAP
1 gpio_inp_dis[13] 0.00149139
2 *874:gpio_inp_dis[13] 0.00155939
3 *533:25 0.0781749
4 *533:23 0.0766835
5 *533:21 0.122513
6 *533:19 0.143313
7 *533:11 0.0223589
8 *533:11 *771:19 0.00273515
9 *533:19 *561:13 0.000318962
10 *533:21 *544:13 0.00837854
11 *533:21 *716:23 0
12 gpio_analog_pol[13] gpio_inp_dis[13] 0.000271408
13 gpio_analog_pol[13] *533:25 0.0118492
14 *109:13 *533:19 0
15 *109:13 *533:21 0.000603609
16 *156:13 *533:19 0.00104571
17 *225:13 *533:25 0.193515
18 *246:31 *533:19 0.000939479
19 *313:9 *533:19 0
20 *326:21 *533:21 0.0799092
21 *370:11 *533:11 7.69582e-05
22 *400:11 *533:11 0.000511133
23 *415:13 *533:19 0.000995289
24 *446:11 *533:21 0
25 *479:11 *533:19 0.000866358
26 *481:11 *533:21 0
*RES
1 *874:gpio_inp_dis[13] *533:11 5.649 
2 *533:11 *533:19 48.6558 
3 *533:19 *533:21 2256.85 
4 *533:21 *533:23 0.5 
5 *533:23 *533:25 291.954 
6 *533:25 gpio_inp_dis[13] 6.98903 
*END

*D_NET *534 0.736606
*CONN
*P gpio_inp_dis[14] O
*I *874:gpio_inp_dis[14] O *D counter_gpio_config_example
*CAP
1 gpio_inp_dis[14] 0.0011319
2 *874:gpio_inp_dis[14] 0.0168614
3 *534:34 0.157591
4 *534:32 0.156459
5 *534:30 0.157389
6 *534:28 0.174251
7 *534:28 *558:18 0.00216381
8 *534:28 *571:16 0.00686435
9 *534:28 *571:20 0.00502926
10 *534:28 *571:22 2.16526e-05
11 *534:28 *662:27 0
12 *534:30 *571:22 0.04465
13 *534:30 *662:27 0
14 *534:34 *806:19 0
15 gpio_analog_pol[14] gpio_inp_dis[14] 0.00164013
16 gpio_analog_pol[14] *534:34 0.0121553
17 gpio_dm0[14] *534:34 0
18 *122:193 *534:28 0.000269505
19 *433:10 *534:28 0
20 *532:17 *534:28 0.000128756
*RES
1 *874:gpio_inp_dis[14] *534:28 49.1023 
2 *534:28 *534:30 447.599 
3 *534:30 *534:32 0.5 
4 *534:32 *534:34 368.079 
5 *534:34 gpio_inp_dis[14] 5.02503 
*END

*D_NET *535 0.678565
*CONN
*P gpio_inp_dis[15] O
*I *874:gpio_inp_dis[15] O *D counter_gpio_config_example
*CAP
1 gpio_inp_dis[15] 7.849e-05
2 *874:gpio_inp_dis[15] 0.00106216
3 *535:17 0.140555
4 *535:15 0.140477
5 *535:13 0.148492
6 *535:11 0.148492
7 *535:9 0.00880745
8 *535:7 0.00986961
9 *535:7 gpio_inp_dis[37] 0.000201332
10 *535:9 *666:17 0
11 *535:13 gpio_out[34] 0.00147197
12 *535:13 *763:11 0
13 *535:13 *788:9 0
14 *535:13 *803:9 0
15 *535:13 *814:19 0
16 gpio_analog_pol[15] gpio_inp_dis[15] 0
17 gpio_analog_pol[15] *535:17 0
18 *139:17 *535:17 0
19 *154:7 *535:7 0.000201332
20 *317:9 *535:9 0.0359817
21 *323:9 *535:9 0.0338764
22 *324:9 *535:9 0.0016367
23 *350:15 *535:9 0.00629332
24 *352:17 *535:9 0
25 *359:9 *535:9 0.00106896
26 *380:17 *535:13 0
*RES
1 *874:gpio_inp_dis[15] *535:7 2.76227 
2 *535:7 *535:9 465.225 
3 *535:9 *535:11 0.5 
4 *535:11 *535:13 351.91 
5 *535:13 *535:15 0.5 
6 *535:15 *535:17 2552.15 
7 *535:17 gpio_inp_dis[15] 1.35 
*END

*D_NET *536 0.665599
*CONN
*P gpio_inp_dis[16] O
*I *874:gpio_inp_dis[16] O *D counter_gpio_config_example
*CAP
1 gpio_inp_dis[16] 0.141365
2 *874:gpio_inp_dis[16] 0.00158711
3 *536:15 0.141365
4 *536:13 0.1186
5 *536:11 0.1186
6 *536:9 0.0112347
7 *536:7 0.0128218
8 *536:9 *537:9 0.0465166
9 *536:9 *569:21 0
10 *536:13 *685:11 0
11 *536:13 *688:25 0
12 *536:13 *721:11 0.0182734
13 *536:13 *816:11 0.00797424
14 gpio_analog_pol[16] gpio_inp_dis[16] 0
15 *93:17 *536:9 0
16 *95:7 *536:7 0.000303948
17 *178:15 *536:7 0
18 *359:13 *536:13 0
19 *407:9 *536:9 0.0469566
20 *466:17 *536:13 0
*RES
1 *874:gpio_inp_dis[16] *536:7 3.7528 
2 *536:7 *536:9 569.775 
3 *536:9 *536:11 0.5 
4 *536:11 *536:13 288.4 
5 *536:13 *536:15 0.5 
6 *536:15 gpio_inp_dis[16] 2568.41 
*END

*D_NET *537 0.602513
*CONN
*P gpio_inp_dis[17] O
*I *874:gpio_inp_dis[17] O *D counter_gpio_config_example
*CAP
1 gpio_inp_dis[17] 0.143136
2 *874:gpio_inp_dis[17] 0.0015294
3 *537:15 0.143136
4 *537:13 0.109965
5 *537:11 0.109965
6 *537:9 0.0205384
7 *537:7 0.0220678
8 *537:13 *687:9 0
9 *537:13 *770:11 0
10 *537:13 *772:11 0.00414505
11 gpio_analog_pol[17] gpio_inp_dis[17] 0
12 *93:17 *537:9 0
13 *141:13 *537:13 0
14 *229:7 *537:7 0.000162079
15 *249:7 *537:7 0.000313439
16 *324:15 *537:13 0.000170229
17 *374:7 *537:7 0
18 *406:13 *537:13 0
19 *407:9 *537:9 0.000867221
20 *407:13 *537:13 0
21 *431:9 *537:9 0
22 *536:9 *537:9 0.0465166
*RES
1 *874:gpio_inp_dis[17] *537:7 3.81107 
2 *537:7 *537:9 556.515 
3 *537:9 *537:11 0.5 
4 *537:11 *537:13 255.887 
5 *537:13 *537:15 0.5 
6 *537:15 gpio_inp_dis[17] 2599.52 
*END

*D_NET *538 0.594915
*CONN
*P gpio_inp_dis[18] O
*I *874:gpio_inp_dis[18] O *D counter_gpio_config_example
*CAP
1 gpio_inp_dis[18] 0.00161267
2 *874:gpio_inp_dis[18] 0.00764603
3 *538:13 0.0876111
4 *538:11 0.0859984
5 *538:9 0.170816
6 *538:7 0.178462
7 *538:13 *676:9 0
8 *538:13 *720:11 0.0271524
9 gpio_analog_pol[18] gpio_inp_dis[18] 0
10 gpio_holdover[19] *538:13 0
11 *122:15 *538:7 0
12 *179:15 *538:7 0
13 *198:9 *538:9 0.0289858
14 *323:7 *538:7 0.000208235
15 *324:7 *538:7 0.000204264
16 *327:9 *538:9 0.0062177
17 *414:9 *538:9 0
18 *455:11 *538:13 0
19 *459:11 *538:9 0
*RES
1 *874:gpio_inp_dis[18] *538:7 16.3967 
2 *538:7 *538:9 3100.4 
3 *538:9 *538:11 0.5 
4 *538:11 *538:13 212.129 
5 *538:13 gpio_inp_dis[18] 28.0925 
*END

*D_NET *539 0.350092
*CONN
*P gpio_inp_dis[19] O
*I *874:gpio_inp_dis[19] O *D counter_gpio_config_example
*CAP
1 gpio_inp_dis[19] 0.14993
2 *874:gpio_inp_dis[19] 0.000183439
3 *539:11 0.14993
4 *539:9 0.0204058
5 *539:7 0.0205893
6 gpio_analog_pol[19] gpio_inp_dis[19] 0
7 *261:7 *539:7 3.96238e-05
8 *261:9 *539:7 3.48706e-06
9 *261:9 *539:9 0.00751381
10 *308:11 *539:9 0
11 *388:11 *539:7 3.19771e-05
12 *388:11 *539:9 0.00146552
*RES
1 *874:gpio_inp_dis[19] *539:7 0.449667 
2 *539:7 *539:9 55.6535 
3 *539:9 *539:11 0.5 
4 *539:11 gpio_inp_dis[19] 2719.88 
*END

*D_NET *540 0.316141
*CONN
*P gpio_inp_dis[1] O
*I *874:gpio_inp_dis[1] O *D counter_gpio_config_example
*CAP
1 gpio_inp_dis[1] 0.000239861
2 *874:gpio_inp_dis[1] 0.00848035
3 *540:17 0.115896
4 *540:15 0.115656
5 *540:13 0.0275818
6 *540:11 0.0360622
7 *540:11 *738:25 0.00285499
8 gpio_analog_pol[1] *540:17 0
9 *131:9 *540:17 0
10 *187:11 *540:11 0
11 *239:19 *540:11 4.20804e-05
12 *243:15 *540:11 0.0006619
13 *253:11 *540:11 0
14 *253:13 *540:13 0.00574767
15 *292:11 *540:11 0.000196898
16 *298:16 *540:17 0.00272155
17 *375:17 *540:13 0
18 *436:13 *540:13 0
*RES
1 *874:gpio_inp_dis[1] *540:11 22.1967 
2 *540:11 *540:13 59.0393 
3 *540:13 *540:15 0.5 
4 *540:15 *540:17 278.358 
5 *540:17 gpio_inp_dis[1] 0.645367 
*END

*D_NET *541 0.384148
*CONN
*P gpio_inp_dis[20] O
*I *874:gpio_inp_dis[20] O *D counter_gpio_config_example
*CAP
1 gpio_inp_dis[20] 0.00182084
2 *874:gpio_inp_dis[20] 0.00779499
3 *541:13 0.102246
4 *541:11 0.10822
5 *541:13 *567:27 0.0105821
6 *541:13 *717:13 0.141651
7 gpio_analog_pol[20] gpio_inp_dis[20] 0
8 *257:7 *541:11 3.68451e-05
9 *257:9 *541:11 0.00216483
10 *356:7 *541:11 3.25733e-05
11 *356:9 *541:11 0.0021691
12 *361:13 gpio_inp_dis[20] 0.00168098
13 *436:13 *541:13 0.00574885
*RES
1 *874:gpio_inp_dis[20] *541:11 21.3519 
2 *541:11 *541:13 2755.64 
3 *541:13 gpio_inp_dis[20] 21.8867 
*END

*D_NET *542 0.472383
*CONN
*P gpio_inp_dis[21] O
*I *874:gpio_inp_dis[21] O *D counter_gpio_config_example
*CAP
1 gpio_inp_dis[21] 8.17048e-05
2 *874:gpio_inp_dis[21] 0.00108223
3 *542:25 0.145342
4 *542:23 0.145261
5 *542:21 0.00533378
6 *542:19 0.00984709
7 *542:9 0.020595
8 *542:7 0.0171639
9 *542:9 *666:17 0
10 *542:19 *747:5 0.000320884
11 *542:19 *769:5 0
12 *542:19 *783:11 1.61904e-05
13 *542:19 *783:13 0.00117582
14 *542:21 *743:17 0.00257627
15 gpio_analog_pol[21] gpio_inp_dis[21] 0
16 *103:27 *542:21 0.000182763
17 *104:27 *542:19 0.00185987
18 *146:29 *542:25 0
19 *190:27 *542:19 0.0168317
20 *190:29 *542:21 0.0190504
21 *206:11 *542:7 0.000247274
22 *215:33 *542:19 0.000184714
23 *233:19 *542:19 0.0164678
24 *233:21 *542:21 0.0267065
25 *247:7 *542:7 0.000247274
26 *322:9 *542:9 0.0366466
27 *323:15 *542:21 0.00100324
28 *381:17 *542:19 0.0003344
29 *465:19 *542:25 0.00382472
*RES
1 *874:gpio_inp_dis[21] *542:7 2.93707 
2 *542:7 *542:9 424.425 
3 *542:9 *542:19 34.5754 
4 *542:19 *542:21 244.02 
5 *542:21 *542:23 2 
6 *542:23 *542:25 2632.6 
7 *542:25 gpio_inp_dis[21] 1.35 
*END

*D_NET *543 0.432898
*CONN
*P gpio_inp_dis[22] O
*I *874:gpio_inp_dis[22] O *D counter_gpio_config_example
*CAP
1 gpio_inp_dis[22] 0.14997
2 *874:gpio_inp_dis[22] 0.000193461
3 *543:19 0.163171
4 *543:13 0.0216533
5 *543:11 0.00864554
6 gpio_inp_dis[22] *688:19 0
7 gpio_inp_dis[22] *811:5 0
8 gpio_inp_dis[22] *812:5 0.00225497
9 *543:13 *546:13 0
10 *543:13 *815:17 0.00322718
11 *543:19 *750:11 0.000819393
12 gpio_analog_pol[22] gpio_inp_dis[22] 0
13 *92:7 *543:11 3.85255e-05
14 *92:9 *543:11 2.16813e-05
15 *158:11 *543:13 0.000748773
16 *209:7 *543:11 6.059e-05
17 *209:9 *543:11 1.53757e-05
18 *234:13 *543:13 0.0344065
19 *235:13 *543:13 0.000432048
20 *290:17 *543:19 0.00401261
21 *322:13 *543:19 0.01967
22 *360:13 *543:19 0
23 *425:13 *543:13 0.0235567
*RES
1 *874:gpio_inp_dis[22] *543:11 1.13333 
2 *543:11 *543:13 409.125 
3 *543:13 *543:19 43.3396 
4 *543:19 gpio_inp_dis[22] 2624.51 
*END

*D_NET *544 0.4549
*CONN
*P gpio_inp_dis[23] O
*I *874:gpio_inp_dis[23] O *D counter_gpio_config_example
*CAP
1 gpio_inp_dis[23] 0.00208449
2 *874:gpio_inp_dis[23] 0.00223082
3 *544:21 0.14545
4 *544:19 0.143365
5 *544:17 0.0129264
6 *544:15 0.0129264
7 *544:13 0.00747254
8 *544:11 0.00970335
9 *544:13 *716:23 0
10 *544:17 *743:17 0.000534828
11 *544:17 *781:17 0.0375473
12 *544:17 *783:11 0.00022228
13 *544:17 *783:13 3.18411e-05
14 gpio_analog_pol[23] gpio_inp_dis[23] 0
15 *104:27 *544:17 0.00425432
16 *109:13 *544:13 0.00117632
17 *117:15 *544:11 0.000302983
18 *128:15 *544:11 0.00106044
19 *147:23 *544:17 0.003226
20 *148:21 *544:21 0
21 *227:11 *544:11 0
22 *233:19 *544:17 0.00810845
23 *271:19 *544:17 0.0140372
24 *326:13 *544:13 0.00874814
25 *326:21 *544:13 0.000169048
26 *367:27 *544:17 0.030943
27 *446:11 *544:13 0
28 *533:21 *544:13 0.00837854
*RES
1 *874:gpio_inp_dis[23] *544:11 6.0479 
2 *544:11 *544:13 201.555 
3 *544:13 *544:15 0.5 
4 *544:15 *544:17 79.8633 
5 *544:17 *544:19 0.5 
6 *544:19 *544:21 2600.64 
7 *544:21 gpio_inp_dis[23] 36.0975 
*END

*D_NET *545 0.509593
*CONN
*P gpio_inp_dis[24] O
*I *874:gpio_inp_dis[24] O *D counter_gpio_config_example
*CAP
1 gpio_inp_dis[24] 0.0148585
2 *874:gpio_inp_dis[24] 0.0149061
3 *545:26 0.163256
4 *545:24 0.148398
5 *545:22 0.0262639
6 *545:20 0.0262639
7 *545:18 0.0182545
8 *545:16 0.0331606
9 *545:16 *553:16 5.16595e-06
10 *545:18 *553:16 0.000634731
11 *545:18 *705:39 2.77227e-05
12 *545:22 *570:10 0
13 *545:22 *668:9 0
14 *545:22 *818:9 0
15 *545:26 *770:13 0.0358194
16 gpio_dm0[36] *545:16 0.000496499
17 *149:25 gpio_inp_dis[24] 0
18 *237:9 *545:16 0
19 *314:13 gpio_inp_dis[24] 0.0161873
20 *372:23 *545:18 2.88663e-05
21 *372:25 *545:18 0.0101756
22 *420:12 *545:16 0.000855697
*RES
1 *874:gpio_inp_dis[24] *545:16 39.07 
2 *545:16 *545:18 55.4876 
3 *545:18 *545:20 0.5 
4 *545:20 *545:22 60.0527 
5 *545:22 *545:24 0.5 
6 *545:24 *545:26 373.857 
7 *545:26 gpio_inp_dis[24] 41.8459 
*END

*D_NET *546 0.524015
*CONN
*P gpio_inp_dis[25] O
*I *874:gpio_inp_dis[25] O *D counter_gpio_config_example
*CAP
1 gpio_inp_dis[25] 0.000578572
2 *874:gpio_inp_dis[25] 0.000448531
3 *546:21 0.00476682
4 *546:19 0.00418825
5 *546:17 0.0432882
6 *546:15 0.0432882
7 *546:13 0.079268
8 *546:11 0.0797165
9 *546:13 *549:13 0.00356893
10 *546:13 *727:25 0
11 *546:13 *771:13 0
12 *546:13 *815:17 0
13 gpio_analog_pol[25] gpio_inp_dis[25] 0
14 gpio_holdover[25] *546:21 0
15 gpio_ib_mode_sel[25] *546:21 0
16 *176:11 *546:13 0.000101735
17 *234:11 *546:11 3.84114e-05
18 *235:13 *546:13 0
19 *338:13 *546:13 0
20 *358:9 *546:11 0
21 *368:57 *546:13 0.0555222
22 *370:13 *546:13 0.192047
23 *378:15 *546:13 0.000956887
24 *378:21 *546:13 0.0160912
25 *385:7 *546:11 4.48666e-05
26 *385:9 *546:11 0.00010056
27 *425:13 *546:13 0
28 *427:13 *546:13 0
29 *543:13 *546:13 0
*RES
1 *874:gpio_inp_dis[25] *546:11 1.716 
2 *546:11 *546:13 2244.61 
3 *546:13 *546:15 0.5 
4 *546:15 *546:17 101.48 
5 *546:17 *546:19 0.5 
6 *546:19 *546:21 72.525 
7 *546:21 gpio_inp_dis[25] 1.7749 
*END

*D_NET *547 0.541182
*CONN
*P gpio_inp_dis[26] O
*I *874:gpio_inp_dis[26] O *D counter_gpio_config_example
*CAP
1 gpio_inp_dis[26] 0.00352348
2 *874:gpio_inp_dis[26] 0.00800873
3 *547:9 0.0388888
4 *547:7 0.0433741
5 *547:9 *548:9 0.179649
6 *547:9 *550:9 0.0311223
7 *547:9 *731:21 0.0109261
8 *547:9 *765:21 0.0110043
9 *547:9 *768:13 0.00106741
10 gpio_analog_pol[26] gpio_inp_dis[26] 0.000321938
11 *101:7 *547:7 0
12 *150:7 *547:7 0
13 *274:7 *547:7 0.000673563
14 *457:11 *547:9 0.212622
*RES
1 *874:gpio_inp_dis[26] *547:7 19.3683 
2 *547:7 *547:9 2401.19 
3 *547:9 gpio_inp_dis[26] 14.3275 
*END

*D_NET *548 0.402946
*CONN
*P gpio_inp_dis[27] O
*I *874:gpio_inp_dis[27] O *D counter_gpio_config_example
*CAP
1 gpio_inp_dis[27] 0.00354896
2 *874:gpio_inp_dis[27] 0.00898201
3 *548:9 0.0559302
4 *548:7 0.0613633
5 *548:9 *550:9 0.0141562
6 *548:9 *731:21 0.0644711
7 *548:9 *768:13 0.00459693
8 *548:9 *818:13 0.00988217
9 gpio_analog_pol[27] gpio_inp_dis[27] 9.37479e-05
10 *143:7 *548:7 5.38569e-05
11 *179:15 *548:7 0
12 *300:7 *548:7 0.000218776
13 *467:13 *548:9 0
14 *547:9 *548:9 0.179649
*RES
1 *874:gpio_inp_dis[27] *548:7 19.31 
2 *548:7 *548:9 2029.4 
3 *548:9 gpio_inp_dis[27] 11.1831 
*END

*D_NET *549 0.444445
*CONN
*P gpio_inp_dis[28] O
*I *874:gpio_inp_dis[28] O *D counter_gpio_config_example
*CAP
1 gpio_inp_dis[28] 0.00243577
2 *874:gpio_inp_dis[28] 0.000380495
3 *549:17 0.0464721
4 *549:15 0.0440363
5 *549:13 0.0492293
6 *549:11 0.0496098
7 *549:13 *771:13 0
8 *549:17 gpio_oeb[28] 0
9 gpio_analog_pol[28] gpio_inp_dis[28] 0
10 *130:11 *549:11 0.000138195
11 *222:7 *549:11 4.7387e-05
12 *222:9 *549:11 0.000136274
13 *334:13 *549:13 0.000106321
14 *343:13 *549:13 0
15 *368:31 *549:13 0.000103095
16 *368:57 *549:13 0.0120042
17 *370:13 *549:13 0.152601
18 *378:21 *549:13 0.00592742
19 *422:13 *549:13 0.0776484
20 *463:11 *549:13 0
21 *546:13 *549:13 0.00356893
*RES
1 *874:gpio_inp_dis[28] *549:11 1.83253 
2 *549:11 *549:13 1860.58 
3 *549:13 *549:15 0.5 
4 *549:15 *549:17 101.597 
5 *549:17 gpio_inp_dis[28] 34.005 
*END

*D_NET *550 0.363921
*CONN
*P gpio_inp_dis[29] O
*I *874:gpio_inp_dis[29] O *D counter_gpio_config_example
*CAP
1 gpio_inp_dis[29] 0.00349602
2 *874:gpio_inp_dis[29] 0.00844906
3 *550:9 0.117048
4 *550:7 0.122001
5 gpio_dm1[36] *550:9 0.000136761
6 *116:7 *550:7 0
7 *122:15 *550:7 0
8 *198:7 *550:7 0.00187864
9 *259:15 *550:7 1.91769e-05
10 *416:25 *550:9 0
11 *417:17 *550:9 0
12 *424:9 *550:9 0.00177405
13 *424:35 *550:9 0.000390627
14 *424:39 *550:9 0.00309314
15 *457:11 *550:9 0.0603562
16 *547:9 *550:9 0.0311223
17 *548:9 *550:9 0.0141562
*RES
1 *874:gpio_inp_dis[29] *550:7 19.5139 
2 *550:7 *550:9 282.986 
3 *550:9 gpio_inp_dis[29] 7.60537 
*END

*D_NET *551 0.279714
*CONN
*P gpio_inp_dis[2] O
*I *874:gpio_inp_dis[2] O *D counter_gpio_config_example
*CAP
1 gpio_inp_dis[2] 0.00937472
2 *874:gpio_inp_dis[2] 0.000158854
3 *551:9 0.111913
4 *551:7 0.102697
5 gpio_analog_en[2] gpio_inp_dis[2] 0
6 gpio_analog_pol[1] gpio_inp_dis[2] 0.00130583
7 gpio_analog_pol[2] gpio_inp_dis[2] 0.000981265
8 *165:9 *551:9 0
9 *170:17 *551:9 0
10 *188:13 gpio_inp_dis[2] 0
11 *214:17 *551:9 0.0527548
12 *221:11 *551:7 0
13 *221:11 *551:9 0
14 *243:17 gpio_inp_dis[2] 0.000399792
15 *368:31 *551:7 5.46561e-05
16 *368:31 *551:9 7.38179e-05
*RES
1 *874:gpio_inp_dis[2] *551:7 0.332838 
2 *551:7 *551:9 293.819 
3 *551:9 gpio_inp_dis[2] 23.5954 
*END

*D_NET *552 0.219259
*CONN
*P gpio_inp_dis[30] O
*I *874:gpio_inp_dis[30] O *D counter_gpio_config_example
*CAP
1 gpio_inp_dis[30] 0.00238628
2 *874:gpio_inp_dis[30] 0.010349
3 *552:9 0.0673769
4 *552:7 0.0753396
5 *552:9 *730:21 0.0629526
6 gpio_analog_pol[30] gpio_inp_dis[30] 0.000491381
7 *127:7 *552:7 0.00033281
8 *301:7 *552:7 3.01764e-05
9 *416:23 *552:7 0
*RES
1 *874:gpio_inp_dis[30] *552:7 21.1745 
2 *552:7 *552:9 1385.27 
3 *552:9 gpio_inp_dis[30] 5.63063 
*END

*D_NET *553 0.261031
*CONN
*P gpio_inp_dis[31] O
*I *874:gpio_inp_dis[31] O *D counter_gpio_config_example
*CAP
1 gpio_inp_dis[31] 0.000313873
2 *874:gpio_inp_dis[31] 0.00251506
3 *553:22 0.0433168
4 *553:20 0.043003
5 *553:18 0.0286432
6 *553:16 0.0311582
7 *553:18 *699:9 0.00334485
8 *553:18 *751:11 0.000328184
9 *553:22 *726:21 0
10 gpio_analog_pol[31] gpio_inp_dis[31] 0.000225015
11 *110:6 *553:16 0.000304826
12 *142:13 *553:18 0.0481212
13 *205:17 *553:16 0.000332861
14 *237:9 *553:16 0.000144131
15 *290:17 *553:18 0
16 *290:21 *553:22 0.0367458
17 *323:15 *553:18 0
18 *410:19 *553:16 0.000885173
19 *411:15 *553:18 0.0210087
20 *545:16 *553:16 5.16595e-06
21 *545:18 *553:16 0.000634731
*RES
1 *874:gpio_inp_dis[31] *553:16 26.1881 
2 *553:16 *553:18 99.0331 
3 *553:18 *553:20 0.5 
4 *553:20 *553:22 897.705 
5 *553:22 gpio_inp_dis[31] 1.2657 
*END

*D_NET *554 0.176905
*CONN
*P gpio_inp_dis[32] O
*I *874:gpio_inp_dis[32] O *D counter_gpio_config_example
*CAP
1 gpio_inp_dis[32] 0.00623396
2 *874:gpio_inp_dis[32] 0.00763304
3 *554:9 0.0776585
4 *554:7 0.0790576
5 gpio_analog_pol[32] gpio_inp_dis[32] 0
6 gpio_dm0[32] gpio_inp_dis[32] 0
7 *158:15 gpio_inp_dis[32] 0.00378879
8 *198:7 *554:7 0
9 *246:53 gpio_inp_dis[32] 0
10 *264:7 *554:7 0.000113194
11 *285:7 *554:7 0.00180421
12 *332:15 gpio_inp_dis[32] 9.69386e-05
13 *332:17 gpio_inp_dis[32] 6.09935e-05
14 *339:33 *554:7 0.00045813
*RES
1 *874:gpio_inp_dis[32] *554:7 17.999 
2 *554:7 *554:9 143.561 
3 *554:9 gpio_inp_dis[32] 14.8608 
*END

*D_NET *555 0.223409
*CONN
*P gpio_inp_dis[33] O
*I *874:gpio_inp_dis[33] O *D counter_gpio_config_example
*CAP
1 gpio_inp_dis[33] 9.01344e-05
2 *874:gpio_inp_dis[33] 0.00317454
3 *555:17 0.0451549
4 *555:15 0.0450647
5 *555:13 0.0580692
6 *555:11 0.0612437
7 *555:17 *752:9 0.00749518
8 gpio_analog_en[33] *555:17 0
9 gpio_analog_pol[33] *555:17 0.0016382
10 *144:12 *555:11 0.000277078
11 *186:11 *555:11 0.00105271
12 *275:9 *555:11 0
13 *378:15 *555:11 0.000148654
*RES
1 *874:gpio_inp_dis[33] *555:11 8.7954 
2 *555:11 *555:13 115.284 
3 *555:13 *555:15 0.5 
4 *555:15 *555:17 109.386 
5 *555:17 gpio_inp_dis[33] 0.259033 
*END

*D_NET *556 0.177777
*CONN
*P gpio_inp_dis[34] O
*I *874:gpio_inp_dis[34] O *D counter_gpio_config_example
*CAP
1 gpio_inp_dis[34] 0.0003168
2 *874:gpio_inp_dis[34] 0.00058149
3 *556:22 2.10056e-06
4 *556:17 0.0454185
5 *556:15 0.0451038
6 *556:13 0.0263364
7 *556:11 0.0269178
8 *556:13 *557:13 0.000110459
9 *556:17 *811:11 0.00232591
10 gpio_analog_pol[34] *556:22 1.48774e-05
11 gpio_analog_sel[34] *556:17 0
12 *139:13 *556:17 0
13 *283:15 *556:17 0
14 *290:13 *556:13 0.0011341
15 *293:13 *556:13 0.00015346
16 *318:7 *556:11 4.90961e-05
17 *318:9 *556:11 0.000116483
18 *334:13 *556:13 0.0185659
19 *335:13 *556:13 0.000318962
20 *368:55 *556:13 0.00570656
21 *372:11 *556:11 0.000169523
22 *378:15 *556:13 0.00393176
23 *378:19 *556:13 0.000338198
24 *381:13 *556:13 0.000164905
*RES
1 *874:gpio_inp_dis[34] *556:11 2.03647 
2 *556:11 *556:13 61.8817 
3 *556:13 *556:15 0.5 
4 *556:15 *556:17 102.627 
5 *556:17 gpio_inp_dis[34] 0.9044 
6 gpio_inp_dis[34] *556:22 0.0556098 
*END

*D_NET *557 0.218661
*CONN
*P gpio_inp_dis[35] O
*I *874:gpio_inp_dis[35] O *D counter_gpio_config_example
*CAP
1 gpio_inp_dis[35] 0.000287002
2 *874:gpio_inp_dis[35] 0.00063791
3 *557:21 0.00139321
4 *557:19 0.00110621
5 *557:17 0.023535
6 *557:15 0.023535
7 *557:13 0.0166653
8 *557:11 0.0173032
9 *557:17 *829:16 0.00137446
10 *557:21 *726:21 0.00257827
11 gpio_analog_pol[35] gpio_inp_dis[35] 0.000171096
12 *874:gpio_in[0] *557:11 0.00021433
13 *113:13 *557:13 0
14 *117:17 *557:17 6.68625e-06
15 *127:19 *557:17 7.82121e-05
16 *127:21 *557:17 0.0109
17 *146:13 *557:13 0
18 *215:33 *557:17 0.0025966
19 *240:19 *557:17 0.000116982
20 *290:13 *557:13 0.00111032
21 *292:13 *557:13 0
22 *293:13 *557:13 0.0158982
23 *293:17 *557:17 7.71957e-05
24 *294:13 *557:13 0
25 *337:13 *557:13 0
26 *337:17 *557:17 0.0663264
27 *337:21 *557:21 0.00454729
28 *347:19 *557:17 4.12356e-05
29 *347:21 *557:17 0.000119689
30 *381:13 *557:13 0.00227832
31 *394:7 *557:11 4.41342e-05
32 *394:9 *557:11 0.0001027
33 *425:17 *557:17 0.0253517
34 *463:7 *557:11 0.000136066
35 *463:11 *557:13 1.75432e-05
36 *556:13 *557:13 0.000110459
*RES
1 *874:gpio_inp_dis[35] *557:11 2.29867 
2 *557:11 *557:13 378.015 
3 *557:13 *557:15 0.5 
4 *557:15 *557:17 102.413 
5 *557:17 *557:19 0.5 
6 *557:19 *557:21 52.635 
7 *557:21 gpio_inp_dis[35] 1.24923 
*END

*D_NET *558 0.139457
*CONN
*P gpio_inp_dis[36] O
*I *874:gpio_inp_dis[36] O *D counter_gpio_config_example
*CAP
1 gpio_inp_dis[36] 0.000925705
2 *874:gpio_inp_dis[36] 0.0515285
3 *558:20 0.0125177
4 *558:18 0.0631205
5 gpio_analog_pol[36] gpio_inp_dis[36] 0.000266288
6 *120:10 *558:18 0.000379858
7 *144:12 *558:18 0.00817458
8 *207:9 *558:20 0
9 *252:40 *558:18 0.000379858
10 *462:15 *558:20 0
11 *534:28 *558:18 0.00216381
*RES
1 *874:gpio_inp_dis[36] *558:18 17.4236 
2 *558:18 *558:20 201.045 
3 *558:20 gpio_inp_dis[36] 2.56023 
*END

*D_NET *559 0.0303
*CONN
*P gpio_inp_dis[37] O
*I *874:gpio_inp_dis[37] O *D counter_gpio_config_example
*CAP
1 gpio_inp_dis[37] 0.0110764
2 *874:gpio_inp_dis[37] 0.0110764
3 gpio_analog_en[37] gpio_inp_dis[37] 0.0051025
4 gpio_analog_pol[37] gpio_inp_dis[37] 0.0014084
5 *154:7 gpio_inp_dis[37] 0
6 *396:15 gpio_inp_dis[37] 0.00103109
7 *462:15 gpio_inp_dis[37] 0.000403831
8 *535:7 gpio_inp_dis[37] 0.000201332
*RES
1 *874:gpio_inp_dis[37] gpio_inp_dis[37] 31.2836 
*END

*D_NET *560 0.0999009
*CONN
*P gpio_inp_dis[38] O
*I *874:gpio_inp_dis[38] O *D counter_gpio_config_example
*CAP
1 gpio_inp_dis[38] 2.07946e-05
2 *874:gpio_inp_dis[38] 0.000194174
3 *560:19 0.00400219
4 *560:17 0.0039814
5 *560:15 0.0293207
6 *560:13 0.0293207
7 *560:11 0.00451814
8 *560:9 0.00471231
9 *560:11 *563:11 0.00748733
10 *560:11 *564:8 0.000116216
11 *560:11 *566:8 0.00108843
12 gpio_analog_pol[38] *560:19 0
13 gpio_dm0[38] *560:19 0
14 *252:50 *560:19 0.00614128
15 *301:9 *560:11 0
16 *340:9 *560:11 0
17 *342:19 *560:11 0.000738514
18 *384:13 *560:15 0
19 *428:11 *560:11 0.00818007
20 *432:13 *560:11 7.87451e-05
21 *475:11 *560:15 0
*RES
1 *874:gpio_inp_dis[38] *560:9 0.930667 
2 *560:9 *560:11 145.455 
3 *560:11 *560:13 0.5 
4 *560:13 *560:15 70.6572 
5 *560:15 *560:17 0.5 
6 *560:17 *560:19 95.625 
7 *560:19 gpio_inp_dis[38] 0.3825 
*END

*D_NET *561 0.130236
*CONN
*P gpio_inp_dis[39] O
*I *874:gpio_inp_dis[39] O *D counter_gpio_config_example
*CAP
1 gpio_inp_dis[39] 8.52172e-05
2 *874:gpio_inp_dis[39] 0.00226579
3 *561:25 0.00373585
4 *561:23 0.00379446
5 *561:21 0.0147642
6 *561:19 0.0146204
7 *561:17 0.0240347
8 *561:15 0.0240347
9 *561:13 0.0100642
10 *561:11 0.01233
11 *561:13 *716:23 0.0134538
12 gpio_analog_pol[39] *561:25 0
13 *255:7 *561:11 4.31932e-05
14 *255:9 *561:11 0.000479353
15 *357:19 *561:11 0
16 *479:11 *561:13 0.006211
17 *533:19 *561:13 0.000318962
*RES
1 *874:gpio_inp_dis[39] *561:11 5.7364 
2 *561:11 *561:13 274.485 
3 *561:13 *561:15 0.5 
4 *561:15 *561:17 58.0716 
5 *561:17 *561:19 0.5 
6 *561:19 *561:21 250.89 
7 *561:21 *561:23 2.52 
8 *561:23 *561:25 62.1 
9 *561:25 gpio_inp_dis[39] 1.5675 
*END

*D_NET *562 0.441133
*CONN
*P gpio_inp_dis[3] O
*I *874:gpio_inp_dis[3] O *D counter_gpio_config_example
*CAP
1 gpio_inp_dis[3] 9.76272e-05
2 *874:gpio_inp_dis[3] 0.000235907
3 *562:17 0.0858148
4 *562:15 0.0857172
5 *562:13 0.00748653
6 *562:11 0.00748653
7 *562:9 0.0141678
8 *562:7 0.0144037
9 *562:7 *732:5 0
10 *562:9 *661:15 0.000903352
11 *562:9 *735:11 0.00109537
12 *562:9 *749:19 0.00290385
13 *562:9 *787:11 0.00010189
14 *562:9 *804:9 0.0300064
15 *562:13 *672:13 0.00832601
16 *94:11 *562:17 0.00132898
17 *127:21 *562:9 0
18 *146:13 *562:13 0
19 *166:17 *562:17 0
20 *226:9 *562:17 0.177191
21 *259:29 *562:9 0.00386633
22 *380:13 *562:13 0
*RES
1 *874:gpio_inp_dis[3] *562:7 5.495 
2 *562:7 *562:9 361.32 
3 *562:9 *562:11 2 
4 *562:11 *562:13 174.398 
5 *562:13 *562:15 0.5 
6 *562:15 *562:17 297.556 
7 *562:17 gpio_inp_dis[3] 0.280567 
*END

*D_NET *563 0.209476
*CONN
*P gpio_inp_dis[40] O
*I *874:gpio_inp_dis[40] O *D counter_gpio_config_example
*CAP
1 gpio_inp_dis[40] 9.74494e-05
2 *874:gpio_inp_dis[40] 0.000175693
3 *563:19 0.00346571
4 *563:17 0.00336826
5 *563:15 0.0579494
6 *563:13 0.0579494
7 *563:11 0.00298926
8 *563:9 0.00316496
9 *563:11 *564:8 0.000116216
10 *563:11 *566:8 0.00219283
11 gpio_analog_pol[40] *563:19 6.27601e-05
12 *126:17 *563:15 0.0641786
13 *167:13 *563:19 0
14 *340:9 *563:11 0
15 *340:13 *563:11 0
16 *432:13 *563:11 0.000861531
17 *432:15 *563:11 0.00541645
18 *432:19 *563:15 0
19 *560:11 *563:11 0.00748733
*RES
1 *874:gpio_inp_dis[40] *563:9 0.7584 
2 *563:9 *563:11 120.975 
3 *563:11 *563:13 0.5 
4 *563:13 *563:15 173.847 
5 *563:15 *563:17 0.5 
6 *563:17 *563:19 59.925 
7 *563:19 gpio_inp_dis[40] 1.7925 
*END

*D_NET *564 0.286524
*CONN
*P gpio_inp_dis[41] O
*I *874:gpio_inp_dis[41] O *D counter_gpio_config_example
*CAP
1 gpio_inp_dis[41] 5.34137e-05
2 *874:gpio_inp_dis[41] 0.00138734
3 *564:14 0.0091717
4 *564:12 0.00911829
5 *564:10 0.0416798
6 *564:8 0.0430671
7 *564:8 *566:8 0.00205307
8 *564:10 *701:9 0.00101297
9 *564:10 *702:9 0.0465653
10 *564:10 *713:15 0.029221
11 *564:10 *714:19 0.0167577
12 *564:10 *718:11 0.0312138
13 *564:10 *794:9 0.00121887
14 *564:10 *832:9 0.052847
15 gpio_analog_pol[41] *564:14 0
16 *257:13 *564:14 0
17 *342:19 *564:8 0.000537767
18 *389:13 *564:10 0
19 *428:11 *564:8 0.000280267
20 *432:13 *564:8 0.000106321
21 *529:13 *564:10 0
22 *560:11 *564:8 0.000116216
23 *563:11 *564:8 0.000116216
*RES
1 *874:gpio_inp_dis[41] *564:8 5.08627 
2 *564:8 *564:10 208.72 
3 *564:10 *564:12 0.5 
4 *564:12 *564:14 162.945 
5 *564:14 gpio_inp_dis[41] 0.9825 
*END

*D_NET *565 0.385018
*CONN
*P gpio_inp_dis[42] O
*I *874:gpio_inp_dis[42] O *D counter_gpio_config_example
*CAP
1 gpio_inp_dis[42] 0.000767303
2 *874:gpio_inp_dis[42] 0.00353906
3 *565:13 0.0828747
4 *565:11 0.0821074
5 *565:9 0.0242853
6 *565:7 0.0278244
7 gpio_ib_mode_sel[39] *565:13 0.000323283
8 *101:9 *565:9 0.0362064
9 *169:25 gpio_inp_dis[42] 0
10 *197:7 *565:7 0.00052201
11 *259:17 *565:9 0.00834537
12 *412:7 *565:7 0.000262055
13 *431:13 *565:13 0.117961
14 *478:9 *565:13 0
*RES
1 *874:gpio_inp_dis[42] *565:7 7.71493 
2 *565:7 *565:9 638.625 
3 *565:9 *565:11 0.5 
4 *565:11 *565:13 250.701 
5 *565:13 gpio_inp_dis[42] 14.2025 
*END

*D_NET *566 0.313689
*CONN
*P gpio_inp_dis[43] O
*I *874:gpio_inp_dis[43] O *D counter_gpio_config_example
*CAP
1 gpio_inp_dis[43] 0.00248366
2 *874:gpio_inp_dis[43] 0.0100647
3 *566:10 0.103923
4 *566:8 0.111504
5 *566:8 *567:13 0.000234659
6 *566:10 *785:9 0
7 *124:17 *566:10 0.0781073
8 *170:21 gpio_inp_dis[43] 0
9 *342:19 *566:8 3.41524e-05
10 *428:11 *566:8 0.000194387
11 *432:13 *566:8 0.000234659
12 *432:15 *566:8 0.00157434
13 *433:10 *566:8 0
14 *476:11 *566:10 0
15 *560:11 *566:8 0.00108843
16 *563:11 *566:8 0.00219283
17 *564:8 *566:8 0.00205307
*RES
1 *874:gpio_inp_dis[43] *566:8 25.6721 
2 *566:8 *566:10 277.883 
3 *566:10 gpio_inp_dis[43] 45.8825 
*END

*D_NET *567 0.450978
*CONN
*P gpio_inp_dis[4] O
*I *874:gpio_inp_dis[4] O *D counter_gpio_config_example
*CAP
1 gpio_inp_dis[4] 6.74029e-05
2 *874:gpio_inp_dis[4] 0.000442804
3 *567:31 0.121652
4 *567:29 0.121585
5 *567:27 0.0294659
6 *567:25 0.0294659
7 *567:23 0.00366077
8 *567:21 0.0041783
9 *567:15 0.0140749
10 *567:13 0.0140002
11 *567:13 *662:25 0
12 *567:13 *690:13 4.57523e-06
13 *567:15 *662:25 0.00100662
14 *567:15 *670:9 0.00843918
15 *567:15 *683:11 0.000487
16 *567:15 *690:11 0.000536006
17 *567:15 *690:13 0.00943711
18 *567:15 *727:21 0.00087334
19 *567:15 *730:9 0.0106701
20 *567:15 *782:17 0.0179732
21 *567:15 *815:15 0.00290932
22 *567:21 *683:11 0.000110525
23 *567:21 *727:21 0.00106077
24 *567:21 *815:15 0.000229629
25 *567:23 *683:11 0.000284175
26 *567:27 *717:13 0.0231949
27 gpio_analog_pol[4] *567:31 0
28 *176:13 *567:31 0
29 *265:9 *567:31 0
30 *321:13 *567:27 0
31 *432:13 *567:13 0.000251136
32 *436:13 *567:27 0.00274847
33 *450:17 *567:15 0.00143696
34 *450:17 *567:21 0.00139373
35 *450:17 *567:23 0.0115631
36 *469:23 *567:15 0.00560019
37 *479:15 *567:21 0.000788085
38 *479:15 *567:23 0.000570143
39 *541:13 *567:27 0.0105821
40 *566:8 *567:13 0.000234659
*RES
1 *874:gpio_inp_dis[4] *567:13 5.96817 
2 *567:13 *567:15 441.36 
3 *567:15 *567:21 23.0775 
4 *567:21 *567:23 106.537 
5 *567:23 *567:25 2 
6 *567:25 *567:27 747.128 
7 *567:27 *567:29 0.5 
8 *567:29 *567:31 279.144 
9 *567:31 gpio_inp_dis[4] 0.177967 
*END

*D_NET *568 0.320676
*CONN
*P gpio_inp_dis[5] O
*I *874:gpio_inp_dis[5] O *D counter_gpio_config_example
*CAP
1 gpio_inp_dis[5] 0.00395261
2 *874:gpio_inp_dis[5] 0.00761595
3 *568:9 0.139934
4 *568:7 0.135981
5 *568:5 0.00761595
6 gpio_inp_dis[5] *701:13 0.00261004
7 *568:5 *689:11 0
8 *568:5 *735:7 0
9 *568:5 *806:13 0.0031425
10 *103:27 *568:5 0
11 *172:17 gpio_inp_dis[5] 0.000799371
12 *468:17 *568:9 0.019024
13 *480:9 *568:9 0
*RES
1 *874:gpio_inp_dis[5] *568:5 132.143 
2 *568:5 *568:7 0.5 
3 *568:7 *568:9 333.848 
4 *568:9 gpio_inp_dis[5] 36.9417 
*END

*D_NET *569 0.65863
*CONN
*P gpio_inp_dis[6] O
*I *874:gpio_inp_dis[6] O *D counter_gpio_config_example
*CAP
1 gpio_inp_dis[6] 0.00226055
2 *874:gpio_inp_dis[6] 0.0130578
3 *569:25 0.111965
4 *569:23 0.109704
5 *569:21 0.0218429
6 *569:19 0.0349007
7 *102:7 *569:19 0
8 *133:9 *569:19 0.00788276
9 *173:13 gpio_inp_dis[6] 0.00170063
10 *173:13 *569:25 0.241381
11 *340:7 *569:19 4.14589e-05
12 *347:7 *569:19 5.75686e-05
13 *392:11 *569:19 0.000270533
14 *393:7 *569:19 0
15 *406:9 *569:21 0.00125392
16 *407:9 *569:21 0.000327557
17 *411:9 *569:21 0.0472519
18 *412:9 *569:21 0.0523149
19 *438:9 *569:21 0.0124175
20 *536:9 *569:21 0
*RES
1 *874:gpio_inp_dis[6] *569:19 35.7228 
2 *569:19 *569:21 860.475 
3 *569:21 *569:23 0.5 
4 *569:23 *569:25 373.498 
5 *569:25 gpio_inp_dis[6] 5.61197 
*END

*D_NET *570 0.537338
*CONN
*P gpio_inp_dis[7] O
*I *874:gpio_inp_dis[7] O *D counter_gpio_config_example
*CAP
1 gpio_inp_dis[7] 0.0040465
2 *874:gpio_inp_dis[7] 0
3 *570:14 0.033784
4 *570:12 0.0297376
5 *570:10 0.153529
6 *570:8 0.153529
7 *570:6 0.029029
8 *570:4 0.029029
9 *570:6 *664:18 0.00630196
10 *570:6 *665:22 0.00357716
11 *570:10 gpio_slow_sel[6] 0
12 gpio_analog_pol[7] gpio_inp_dis[7] 0.000399076
13 gpio_dm0[7] gpio_inp_dis[7] 0.00342369
14 *92:13 *570:14 0.061483
15 *132:9 *570:6 0.0282061
16 *261:13 *570:14 0.00126293
17 *545:22 *570:10 0
*RES
1 *874:gpio_inp_dis[7] *570:4 0.5 
2 *570:4 *570:6 95.0431 
3 *570:6 *570:8 0.5 
4 *570:8 *570:10 365.72 
5 *570:10 *570:12 0.5 
6 *570:12 *570:14 115.284 
7 *570:14 gpio_inp_dis[7] 11.1812 
*END

*D_NET *571 0.56438
*CONN
*P gpio_inp_dis[8] O
*I *874:gpio_inp_dis[8] O *D counter_gpio_config_example
*CAP
1 gpio_inp_dis[8] 0.00141909
2 *874:gpio_inp_dis[8] 0.0150213
3 *571:26 0.159006
4 *571:24 0.157587
5 *571:22 0.0679625
6 *571:20 0.0714563
7 *571:16 0.0185151
8 gpio_analog_en[8] *571:26 0
9 gpio_analog_pol[8] gpio_inp_dis[8] 0.000395146
10 gpio_analog_pol[8] *571:26 0.0155076
11 gpio_dm0[8] *571:26 4.09101e-05
12 *263:17 *571:26 0
13 *295:24 *571:16 0.000775705
14 *433:10 *571:16 0
15 *532:17 *571:16 0.000128756
16 *534:28 *571:16 0.00686435
17 *534:28 *571:20 0.00502926
18 *534:28 *571:22 2.16526e-05
19 *534:30 *571:22 0.04465
*RES
1 *874:gpio_inp_dis[8] *571:16 39.0338 
2 *571:16 *571:20 12.4285 
3 *571:20 *571:22 220.294 
4 *571:22 *571:24 0.5 
5 *571:24 *571:26 368.429 
6 *571:26 gpio_inp_dis[8] 6.48917 
*END

*D_NET *572 0.415165
*CONN
*P gpio_inp_dis[9] O
*I *874:gpio_inp_dis[9] O *D counter_gpio_config_example
*CAP
1 gpio_inp_dis[9] 0.00251906
2 *874:gpio_inp_dis[9] 0.0739903
3 *572:9 0.133316
4 *572:7 0.130796
5 *572:5 0.0739903
6 *572:5 *808:5 0
7 gpio_analog_pol[9] gpio_inp_dis[9] 0.000547958
8 gpio_analog_pol[9] *572:9 5.71181e-06
9 *132:13 *572:9 0
10 *176:21 *572:9 0
*RES
1 *874:gpio_inp_dis[9] *572:5 1335.74 
2 *572:5 *572:7 0.5 
3 *572:7 *572:9 313.833 
4 *572:9 gpio_inp_dis[9] 5.54103 
*END

*D_NET *661 0.491465
*CONN
*P gpio_oeb[0] O
*I *874:gpio_oeb[0] O *D counter_gpio_config_example
*CAP
1 gpio_oeb[0] 3.1514e-05
2 *874:gpio_oeb[0] 0.00330705
3 *661:29 0.0907008
4 *661:27 0.0906693
5 *661:25 0.0231872
6 *661:23 0.0251581
7 *661:19 0.00197082
8 *661:17 0.00302263
9 *661:15 0.00632968
10 *661:15 *703:177 0.000101579
11 *661:15 *712:5 0
12 *661:15 *749:19 0.000126805
13 *661:15 *779:16 0.000261782
14 *661:15 *787:11 0.00729527
15 *661:15 *795:5 0
16 *661:15 *804:9 0.000828005
17 *661:17 *672:11 0.000660524
18 *661:17 *716:19 0.0166253
19 *661:23 *705:41 0.000881977
20 *661:25 *705:41 0.052216
21 *661:29 *793:19 0
22 gpio_ib_mode_sel[0] *661:29 0.0016978
23 *103:13 *661:25 0
24 *106:13 *661:23 0
25 *106:13 *661:25 0
26 *205:17 *661:17 0.00198595
27 *238:17 *661:17 0.00531117
28 *259:29 *661:17 0.00461
29 *278:23 *661:23 0.00256341
30 *397:17 *661:29 0.148249
31 *425:17 *661:15 0.0027702
32 *562:9 *661:15 0.000903352
*RES
1 *874:gpio_oeb[0] *661:15 18.5902 
2 *661:15 *661:17 153.63 
3 *661:17 *661:19 2 
4 *661:19 *661:23 48.6225 
5 *661:23 *661:25 605.73 
6 *661:25 *661:27 0.5 
7 *661:27 *661:29 296.624 
8 *661:29 gpio_oeb[0] 0.0905667 
*END

*D_NET *662 0.75686
*CONN
*P gpio_oeb[10] O
*I *874:gpio_oeb[10] O *D counter_gpio_config_example
*CAP
1 gpio_oeb[10] 0.00109854
2 *874:gpio_oeb[10] 0.00183547
3 *662:31 0.108977
4 *662:29 0.107879
5 *662:27 0.154066
6 *662:25 0.155902
7 *662:25 *690:13 0.000813326
8 *662:25 *777:9 0.000542767
9 *662:25 *820:11 0.000625288
10 *662:27 *732:15 0.000272471
11 *662:27 *816:13 0.0119231
12 *662:31 gpio_vtrip_sel[10] 0
13 *662:31 *680:17 0.0228891
14 *122:193 *662:27 0
15 *342:21 *662:25 0
16 *398:17 gpio_oeb[10] 0.00164223
17 *398:17 *662:31 0.187387
18 *432:13 *662:25 0
19 *534:28 *662:27 0
20 *534:30 *662:27 0
21 *567:13 *662:25 0
22 *567:15 *662:25 0.00100662
*RES
1 *874:gpio_oeb[10] *662:25 36.3587 
2 *662:25 *662:27 385.829 
3 *662:27 *662:29 0.5 
4 *662:29 *662:31 367.147 
5 *662:31 gpio_oeb[10] 4.9617 
*END

*D_NET *663 0.700521
*CONN
*P gpio_oeb[11] O
*I *874:gpio_oeb[11] O *D counter_gpio_config_example
*CAP
1 gpio_oeb[11] 1.65509e-05
2 *874:gpio_oeb[11] 0.000721276
3 *663:13 0.162077
4 *663:11 0.16206
5 *663:9 0.0855975
6 *663:7 0.0863187
7 *663:13 gpio_vtrip_sel[26] 0.0116319
8 *663:13 *723:9 0
9 *663:13 *795:9 0
10 gpio_ib_mode_sel[11] *663:13 0
11 *229:9 *663:9 0
12 *233:9 *663:9 0
13 *271:9 *663:9 0
14 *300:9 *663:9 0.00791587
15 *311:9 *663:9 0.182361
16 *359:9 *663:9 0.00136902
17 *360:9 *663:9 0
18 *414:7 *663:7 0.000225163
19 *415:17 *663:13 0
20 *438:7 *663:7 0.000226789
*RES
1 *874:gpio_oeb[11] *663:7 2.41267 
2 *663:7 *663:9 2261.45 
3 *663:9 *663:11 0.5 
4 *663:11 *663:13 377.557 
5 *663:13 gpio_oeb[11] 0.0437 
*END

*D_NET *664 0.63712
*CONN
*P gpio_oeb[12] O
*I *874:gpio_oeb[12] O *D counter_gpio_config_example
*CAP
1 gpio_oeb[12] 0.0124452
2 *874:gpio_oeb[12] 0.004589
3 *664:26 0.096678
4 *664:24 0.0842328
5 *664:22 0.140156
6 *664:20 0.140156
7 *664:18 0.038058
8 *664:16 0.042647
9 *664:18 *665:20 1.79483e-05
10 *664:18 *665:22 0.0420662
11 *129:9 *664:16 0.00282379
12 *135:11 *664:18 0
13 *144:12 *664:18 0.000416754
14 *147:7 *664:16 2.21753e-05
15 *190:19 *664:18 0
16 *210:12 *664:16 0.000588892
17 *217:13 *664:22 0
18 *232:16 *664:16 0.000142346
19 *298:16 *664:16 2.87744e-05
20 *301:9 *664:18 0
21 *344:17 *664:18 0
22 *400:17 gpio_oeb[12] 0.0248492
23 *407:7 *664:16 0
24 *433:8 *664:18 0.000544444
25 *433:10 *664:16 0
26 *532:17 *664:18 0.000354371
27 *570:6 *664:18 0.00630196
*RES
1 *874:gpio_oeb[12] *664:16 14.7227 
2 *664:16 *664:18 858.435 
3 *664:18 *664:20 0.5 
4 *664:20 *664:22 333.964 
5 *664:22 *664:24 0.5 
6 *664:24 *664:26 1530.1 
7 *664:26 gpio_oeb[12] 42.6008 
*END

*D_NET *665 0.723249
*CONN
*P gpio_oeb[13] O
*I *874:gpio_oeb[13] O *D counter_gpio_config_example
*CAP
1 gpio_oeb[13] 9.8068e-05
2 *874:gpio_oeb[13] 0.00365553
3 *665:34 0.153907
4 *665:32 0.153809
5 *665:30 0.0870538
6 *665:28 0.0886248
7 *665:22 0.0181389
8 *665:20 0.0202234
9 *665:30 *732:15 0.00107686
10 *665:30 *816:13 0.0859627
11 *665:34 *797:17 0
12 gpio_ib_mode_sel[13] *665:34 0.000271408
13 *129:9 *665:20 0.00181076
14 *135:9 *665:20 3.86648e-06
15 *144:12 *665:22 0.000466011
16 *201:7 *665:20 4.12446e-06
17 *298:16 *665:20 0.000508693
18 *322:13 *665:28 0.00340916
19 *344:17 *665:20 0.000234659
20 *360:13 *665:28 0
21 *401:17 *665:34 0
22 *433:8 *665:22 0.000544444
23 *433:10 *665:20 0
24 *456:11 *665:30 0.0566971
25 *532:17 *665:20 0.000732676
26 *532:17 *665:22 0.000354371
27 *570:6 *665:22 0.00357716
28 *664:18 *665:20 1.79483e-05
29 *664:18 *665:22 0.0420662
*RES
1 *874:gpio_oeb[13] *665:20 17.4018 
2 *665:20 *665:22 476.318 
3 *665:22 *665:28 6.282 
4 *665:28 *665:30 2180.86 
5 *665:30 *665:32 0.5 
6 *665:32 *665:34 370.098 
7 *665:34 gpio_oeb[13] 0.281833 
*END

*D_NET *666 0.968733
*CONN
*P gpio_oeb[14] O
*I *874:gpio_oeb[14] O *D counter_gpio_config_example
*CAP
1 gpio_oeb[14] 0.00144837
2 *874:gpio_oeb[14] 0.00331362
3 *666:21 0.0902779
4 *666:19 0.0888296
5 *666:17 0.129483
6 *666:15 0.132797
7 *666:17 *808:13 0
8 *666:21 gpio_vtrip_sel[14] 0.00482258
9 gpio_ib_mode_sel[14] gpio_oeb[14] 0.000488523
10 *133:9 *666:15 0.000609242
11 *241:7 *666:15 0.000397146
12 *281:25 *666:21 0.0561883
13 *322:9 *666:17 0
14 *323:9 *666:17 0
15 *402:13 *666:21 0.249099
16 *411:7 *666:15 0.000202015
17 *412:9 *666:17 0.0459899
18 *431:9 *666:15 0.000103095
19 *439:7 *666:15 1.44699e-05
20 *439:9 *666:17 0.16467
21 *535:9 *666:17 0
22 *542:9 *666:17 0
*RES
1 *874:gpio_oeb[14] *666:15 8.94547 
2 *666:15 *666:17 3250.84 
3 *666:17 *666:19 0.5 
4 *666:19 *666:21 375.858 
5 *666:21 gpio_oeb[14] 7.0473 
*END

*D_NET *667 0.613824
*CONN
*P gpio_oeb[15] O
*I *874:gpio_oeb[15] O *D counter_gpio_config_example
*CAP
1 gpio_oeb[15] 8.17048e-05
2 *874:gpio_oeb[15] 0.0207964
3 *667:13 0.125397
4 *667:11 0.125316
5 *667:9 0.135921
6 *667:7 0.135921
7 *667:5 0.0207964
8 *667:5 *679:5 0
9 *667:5 *721:13 0
10 *667:5 *776:5 0
11 *667:9 *671:17 0
12 *667:9 *704:9 0
13 *667:13 *711:21 0.049596
14 *667:13 *834:13 0
15 gpio_ib_mode_sel[15] gpio_oeb[15] 0
16 *403:21 *667:13 0
17 *465:11 *667:5 0
*RES
1 *874:gpio_oeb[15] *667:5 370.312 
2 *667:5 *667:7 0.5 
3 *667:7 *667:9 324.175 
4 *667:9 *667:11 0.5 
5 *667:11 *667:13 2277.76 
6 *667:13 gpio_oeb[15] 1.35 
*END

*D_NET *668 0.526807
*CONN
*P gpio_oeb[16] O
*I *874:gpio_oeb[16] O *D counter_gpio_config_example
*CAP
1 gpio_oeb[16] 0.129114
2 *874:gpio_oeb[16] 0.0176823
3 *668:11 0.129114
4 *668:9 0.110049
5 *668:7 0.110049
6 *668:5 0.0176823
7 *668:5 *704:5 0
8 *668:5 *783:11 0
9 *668:9 *818:9 0.0131164
10 gpio_ib_mode_sel[16] gpio_oeb[16] 0
11 *271:19 *668:5 0
12 *481:7 *668:9 0
13 *545:22 *668:9 0
*RES
1 *874:gpio_oeb[16] *668:5 302.992 
2 *668:5 *668:7 0.5 
3 *668:7 *668:9 257.635 
4 *668:9 *668:11 0.5 
5 *668:11 gpio_oeb[16] 2346.05 
*END

*D_NET *669 0.644321
*CONN
*P gpio_oeb[17] O
*I *874:gpio_oeb[17] O *D counter_gpio_config_example
*CAP
1 gpio_oeb[17] 0.187881
2 *874:gpio_oeb[17] 0.000492205
3 *669:11 0.187881
4 *669:9 0.0391886
5 *669:7 0.0396808
6 *669:7 *703:63 0
7 gpio_ib_mode_sel[17] gpio_oeb[17] 0
8 *133:13 *669:9 0.0530416
9 *404:15 *669:9 0.125393
10 *457:23 *669:9 0.0107617
*RES
1 *874:gpio_oeb[17] *669:7 9.065 
2 *669:7 *669:9 1153.79 
3 *669:9 *669:11 2 
4 *669:11 gpio_oeb[17] 3405.2 
*END

*D_NET *670 0.586214
*CONN
*P gpio_oeb[18] O
*I *874:gpio_oeb[18] O *D counter_gpio_config_example
*CAP
1 gpio_oeb[18] 0.187679
2 *874:gpio_oeb[18] 0.000131168
3 *670:11 0.187679
4 *670:9 0.0129291
5 *670:7 0.0130602
6 *670:7 *725:11 0
7 *670:7 *780:5 0
8 *670:9 *683:11 0.00257421
9 *670:9 *771:11 0.000458004
10 gpio_ib_mode_sel[18] gpio_oeb[18] 0
11 *443:15 *670:9 0.00861293
12 *448:9 *670:9 0.0759907
13 *450:17 *670:9 0.0765177
14 *459:23 *670:9 0.00153422
15 *469:23 *670:9 0.00943976
16 *483:15 *670:9 0.00116966
17 *567:15 *670:9 0.00843918
*RES
1 *874:gpio_oeb[18] *670:7 3.965 
2 *670:7 *670:9 837.075 
3 *670:9 *670:11 2 
4 *670:11 gpio_oeb[18] 3400.09 
*END

*D_NET *671 0.594234
*CONN
*P gpio_oeb[19] O
*I *874:gpio_oeb[19] O *D counter_gpio_config_example
*CAP
1 gpio_oeb[19] 0.0793021
2 *874:gpio_oeb[19] 8.83762e-05
3 *671:19 0.0793021
4 *671:17 0.035087
5 *671:15 0.035087
6 *671:13 0.0547245
7 *671:11 0.0548129
8 gpio_oeb[19] *715:13 0.201519
9 *671:11 *673:11 0
10 *671:11 *683:11 2.46013e-05
11 *671:13 *673:13 0.011926
12 *671:13 *706:13 0.0376588
13 *671:13 *707:5 0.00470176
14 gpio_ib_mode_sel[19] gpio_oeb[19] 0
15 *667:9 *671:17 0
*RES
1 *874:gpio_oeb[19] *671:11 2.13963 
2 *671:11 *671:13 188.412 
3 *671:13 *671:15 0.5 
4 *671:15 *671:17 81.8153 
5 *671:17 *671:19 0.5 
6 *671:19 gpio_oeb[19] 2283.83 
*END

*D_NET *672 0.492449
*CONN
*P gpio_oeb[1] O
*I *874:gpio_oeb[1] O *D counter_gpio_config_example
*CAP
1 gpio_oeb[1] 0.000898972
2 *874:gpio_oeb[1] 0.00503743
3 *672:17 0.0673833
4 *672:15 0.0664843
5 *672:13 0.01739
6 *672:11 0.0224275
7 *672:11 *694:9 0.0180606
8 *672:11 *716:19 0.00274627
9 *672:11 *767:5 0
10 *672:11 *788:5 0
11 *672:13 *694:13 0.00682238
12 *672:13 *782:29 0.000489585
13 gpio_ib_mode_sel[1] gpio_oeb[1] 0.000261545
14 gpio_ib_mode_sel[1] *672:17 0.000344153
15 *108:13 *672:13 0
16 *146:13 *672:13 0
17 *205:17 *672:11 0.0180634
18 *278:11 *672:17 0.000316242
19 *278:13 *672:13 0
20 *303:9 *672:17 0.0477077
21 *408:17 *672:17 0.184911
22 *474:11 *672:13 0.0241182
23 *562:13 *672:13 0.00832601
24 *661:17 *672:11 0.000660524
*RES
1 *874:gpio_oeb[1] *672:11 30.705 
2 *672:11 *672:13 482.565 
3 *672:13 *672:15 0.5 
4 *672:15 *672:17 295.77 
5 *672:17 gpio_oeb[1] 2.06403 
*END

*D_NET *673 0.563212
*CONN
*P gpio_oeb[20] O
*I *874:gpio_oeb[20] O *D counter_gpio_config_example
*CAP
1 gpio_oeb[20] 0.0011029
2 *874:gpio_oeb[20] 8.83673e-05
3 *673:19 0.0151421
4 *673:13 0.228267
5 *673:11 0.214316
6 *673:11 *683:11 2.46013e-05
7 *673:11 *810:11 0
8 *673:13 *687:13 0.0039342
9 *673:13 *706:13 0
10 *673:13 *757:5 0.0388698
11 *673:13 *810:13 0.018018
12 *673:19 *676:9 0
13 gpio_ib_mode_sel[20] gpio_oeb[20] 0
14 *361:13 *673:19 0.0315236
15 *671:11 *673:11 0
16 *671:13 *673:13 0.011926
*RES
1 *874:gpio_oeb[20] *673:11 2.13963 
2 *673:11 *673:13 571.102 
3 *673:13 *673:19 49.6615 
4 *673:19 gpio_oeb[20] 18.285 
*END

*D_NET *674 0.594971
*CONN
*P gpio_oeb[21] O
*I *874:gpio_oeb[21] O *D counter_gpio_config_example
*CAP
1 gpio_oeb[21] 0.00226263
2 *874:gpio_oeb[21] 0.000629375
3 *674:13 0.150052
4 *674:11 0.153967
5 *674:7 0.00680699
6 gpio_oeb[21] gpio_out[21] 0.0131305
7 *674:7 *805:11 0
8 *674:11 *813:9 0.000798583
9 *674:11 *827:9 0.0223167
10 *674:13 *749:25 0
11 gpio_ib_mode_sel[21] gpio_oeb[21] 0
12 *95:13 gpio_oeb[21] 0.00604716
13 *99:13 gpio_oeb[21] 0.000462267
14 *102:13 gpio_oeb[21] 0.00400999
15 *169:13 *674:13 0
16 *170:13 *674:13 0
17 *214:13 *674:13 0
18 *357:21 *674:13 0.205929
19 *454:11 gpio_oeb[21] 0.000181319
20 *462:19 *674:11 0.00185007
21 *529:13 *674:11 0.0265269
*RES
1 *874:gpio_oeb[21] *674:7 9.7325 
2 *674:7 *674:11 41.4995 
3 *674:11 *674:13 3405.89 
4 *674:13 gpio_oeb[21] 24.1538 
*END

*D_NET *675 0.438067
*CONN
*P gpio_oeb[22] O
*I *874:gpio_oeb[22] O *D counter_gpio_config_example
*CAP
1 gpio_oeb[22] 0.0029539
2 *874:gpio_oeb[22] 0.0921944
3 *675:5 0.0951483
4 *675:5 *678:5 0
5 *675:5 *729:13 0.0150673
6 gpio_analog_en[22] *675:5 0.232044
7 gpio_dm0[22] *675:5 0
8 gpio_ib_mode_sel[22] gpio_oeb[22] 0
9 *190:27 *675:5 0
10 *366:13 gpio_oeb[22] 0.000658714
*RES
1 *874:gpio_oeb[22] *675:5 2636.75 
2 *675:5 gpio_oeb[22] 19.1572 
*END

*D_NET *676 0.354896
*CONN
*P gpio_oeb[23] O
*I *874:gpio_oeb[23] O *D counter_gpio_config_example
*CAP
1 gpio_oeb[23] 0.00135539
2 *874:gpio_oeb[23] 0.127849
3 *676:9 0.0231255
4 *676:7 0.0217701
5 *676:5 0.127849
6 *676:5 *691:7 0
7 *676:5 *754:13 0.00589572
8 *676:5 *757:5 0
9 *676:5 *791:13 0.0407465
10 *676:5 *810:13 0.00630409
11 *676:9 *720:11 0
12 gpio_ib_mode_sel[23] gpio_oeb[23] 0
13 *279:15 *676:9 0
14 *361:13 *676:9 0
15 *538:13 *676:9 0
16 *673:19 *676:9 0
*RES
1 *874:gpio_oeb[23] *676:5 2626.55 
2 *676:5 *676:7 0.5 
3 *676:7 *676:9 49.9143 
4 *676:9 gpio_oeb[23] 23.4425 
*END

*D_NET *677 0.399258
*CONN
*P gpio_oeb[24] O
*I *874:gpio_oeb[24] O *D counter_gpio_config_example
*CAP
1 gpio_oeb[24] 0.0197732
2 *874:gpio_oeb[24] 0.00786508
3 *677:13 0.120087
4 *677:11 0.107898
5 *677:5 0.01545
6 gpio_oeb[24] *809:17 0
7 *677:5 gpio_slow_sel[22] 0.00637574
8 *677:5 *689:11 0
9 *677:5 *751:11 0
10 *677:13 *681:7 5.33545e-05
11 *677:13 *812:13 0.121756
12 gpio_ib_mode_sel[24] gpio_oeb[24] 0
13 *103:27 *677:5 0
*RES
1 *874:gpio_oeb[24] *677:5 163.253 
2 *677:5 *677:11 18.5763 
3 *677:11 *677:13 2331.82 
4 *677:13 gpio_oeb[24] 46.0804 
*END

*D_NET *678 0.263994
*CONN
*P gpio_oeb[25] O
*I *874:gpio_oeb[25] O *D counter_gpio_config_example
*CAP
1 gpio_oeb[25] 0.0166964
2 *874:gpio_oeb[25] 0.00285639
3 *678:13 0.115667
4 *678:11 0.109108
5 *678:5 0.0129945
6 gpio_oeb[25] gpio_vtrip_sel[25] 0
7 *678:5 *688:19 0
8 *678:5 *753:13 0.000132553
9 *678:11 *732:15 0
10 *678:11 *791:11 0.00211547
11 gpio_analog_pol[22] *678:5 0
12 gpio_dm0[22] *678:5 0.00442335
13 gpio_ib_mode_sel[25] gpio_oeb[25] 0
14 *180:13 gpio_oeb[25] 0
15 *228:13 *678:11 0
16 *229:13 *678:11 0
17 *675:5 *678:5 0
*RES
1 *874:gpio_oeb[25] *678:5 64.8225 
2 *678:5 *678:11 24.8691 
3 *678:11 *678:13 1793.78 
4 *678:13 gpio_oeb[25] 37.2948 
*END

*D_NET *679 0.242
*CONN
*P gpio_oeb[26] O
*I *874:gpio_oeb[26] O *D counter_gpio_config_example
*CAP
1 gpio_oeb[26] 0.0012889
2 *874:gpio_oeb[26] 0.078659
3 *679:11 0.0207807
4 *679:5 0.0981508
5 *679:5 *758:5 0
6 *679:5 *773:13 0.0427363
7 gpio_ib_mode_sel[26] gpio_oeb[26] 0.000384197
8 *667:5 *679:5 0
*RES
1 *874:gpio_oeb[26] *679:5 1689.68 
2 *679:5 *679:11 45.9616 
3 *679:11 gpio_oeb[26] 11.1275 
*END

*D_NET *680 0.327802
*CONN
*P gpio_oeb[27] O
*I *874:gpio_oeb[27] O *D counter_gpio_config_example
*CAP
1 gpio_oeb[27] 0.00226768
2 *874:gpio_oeb[27] 0.00384589
3 *680:17 0.0238616
4 *680:15 0.0215939
5 *680:13 0.0277114
6 *680:11 0.029804
7 *680:5 0.00593845
8 *680:5 *691:7 0
9 *680:5 *759:5 0
10 *680:11 *791:11 0.00399533
11 *680:13 *720:5 0.0551745
12 *680:13 *809:13 0.130045
13 *680:17 gpio_vtrip_sel[27] 0
14 gpio_ib_mode_sel[27] gpio_oeb[27] 0.000674947
15 gpio_ib_mode_sel[27] *680:17 0
16 *228:13 *680:11 0
17 *229:13 *680:11 0
18 *662:31 *680:17 0.0228891
*RES
1 *874:gpio_oeb[27] *680:5 64.8225 
2 *680:5 *680:11 7.73867 
3 *680:11 *680:13 1468.4 
4 *680:13 *680:15 0.5 
5 *680:15 *680:17 61.7133 
6 *680:17 gpio_oeb[27] 5.08883 
*END

*D_NET *681 0.194551
*CONN
*P gpio_oeb[28] O
*I *874:gpio_oeb[28] O *D counter_gpio_config_example
*CAP
1 gpio_oeb[28] 0.0150085
2 *874:gpio_oeb[28] 2.16101e-05
3 *681:15 0.0815939
4 *681:13 0.0721689
5 *681:7 0.0132792
6 *681:5 0.00771727
7 *681:7 *734:11 0
8 *681:7 *789:5 0
9 *681:7 *812:13 0.0047078
10 gpio_ib_mode_sel[28] gpio_oeb[28] 0
11 *549:17 gpio_oeb[28] 0
12 *677:13 *681:7 5.33545e-05
*RES
1 *874:gpio_oeb[28] *681:5 0.3975 
2 *681:5 *681:7 163.815 
3 *681:7 *681:13 14.0897 
4 *681:13 *681:15 1208.3 
5 *681:15 gpio_oeb[28] 33.016 
*END

*D_NET *682 0.266488
*CONN
*P gpio_oeb[29] O
*I *874:gpio_oeb[29] O *D counter_gpio_config_example
*CAP
1 gpio_oeb[29] 7.16227e-05
2 *874:gpio_oeb[29] 0.0430934
3 *682:9 0.0334929
4 *682:7 0.0334213
5 *682:5 0.0430934
6 *682:5 *745:5 0
7 *682:5 *774:5 0
8 *682:5 *796:13 0.104493
9 *682:9 gpio_vtrip_sel[29] 0
10 gpio_ib_mode_sel[29] *682:9 0.00882319
*RES
1 *874:gpio_oeb[29] *682:5 1211.81 
2 *682:5 *682:7 0.5 
3 *682:7 *682:9 80.9223 
4 *682:9 gpio_oeb[29] 0.205833 
*END

*D_NET *683 0.380815
*CONN
*P gpio_oeb[2] O
*I *874:gpio_oeb[2] O *D counter_gpio_config_example
*CAP
1 gpio_oeb[2] 7.86748e-05
2 *874:gpio_oeb[2] 0.0133309
3 *683:17 0.114443
4 *683:15 0.114364
5 *683:13 0.0154623
6 *683:11 0.0287931
7 *683:11 *700:9 0.000752722
8 *683:11 *703:63 0.000142949
9 *683:11 *706:11 2.46013e-05
10 *683:11 *724:11 2.46013e-05
11 *683:11 *725:11 4.59533e-05
12 *683:11 *727:19 0.00204497
13 *683:11 *754:11 2.46013e-05
14 *683:11 *760:15 0.000104319
15 *683:11 *765:11 4.59533e-05
16 *683:11 *771:11 0
17 *683:11 *801:11 4.59533e-05
18 *683:11 *810:11 4.59533e-05
19 *683:11 *815:15 0.0182882
20 *683:11 *836:11 0.000422585
21 gpio_ib_mode_sel[2] *683:17 0
22 *874:gpio_in[1] *683:11 0.00320392
23 *874:gpio_in[20] *683:11 4.59533e-05
24 *874:gpio_in[21] *683:11 2.46013e-05
25 *874:gpio_in[22] *683:11 4.59533e-05
26 *874:gpio_in[23] *683:11 2.46013e-05
27 *874:gpio_in[2] *683:11 0.000113611
28 *874:gpio_in[30] *683:11 2.46013e-05
29 *874:gpio_in[31] *683:11 4.59533e-05
30 *874:gpio_in[32] *683:11 2.46013e-05
31 *874:gpio_in[33] *683:11 4.59533e-05
32 *874:gpio_in[34] *683:11 2.46013e-05
33 *874:gpio_in[3] *683:11 0
34 *874:gpio_in[5] *683:11 4.59533e-05
35 *874:gpio_in[6] *683:11 2.46013e-05
36 *177:11 *683:17 0
37 *281:13 *683:13 0
38 *309:13 *683:11 0
39 *312:9 *683:17 0.0186215
40 *357:19 *683:13 0.000103095
41 *376:11 *683:17 0.000388916
42 *419:17 *683:17 0
43 *443:15 *683:11 0.00118454
44 *444:11 *683:13 0.0381209
45 *446:11 *683:13 0.000112112
46 *447:13 *683:11 0.000493138
47 *448:9 *683:11 0.00105691
48 *450:17 *683:11 0.0006069
49 *459:23 *683:11 0.00173754
50 *469:23 *683:11 0.00224935
51 *483:15 *683:11 0.00045461
52 *567:15 *683:11 0.000487
53 *567:21 *683:11 0.000110525
54 *567:23 *683:11 0.000284175
55 *670:9 *683:11 0.00257421
56 *671:11 *683:11 2.46013e-05
57 *673:11 *683:11 2.46013e-05
*RES
1 *874:gpio_oeb[2] *683:11 40.0133 
2 *683:11 *683:13 436.155 
3 *683:13 *683:15 0.5 
4 *683:15 *683:17 293.944 
5 *683:17 gpio_oeb[2] 0.2261 
*END

*D_NET *684 0.176729
*CONN
*P gpio_oeb[30] O
*I *874:gpio_oeb[30] O *D counter_gpio_config_example
*CAP
1 gpio_oeb[30] 0.016994
2 *874:gpio_oeb[30] 0.00421456
3 *684:13 0.0707781
4 *684:11 0.0577571
5 *684:5 0.00818748
6 *684:5 *708:5 0
7 *684:5 *764:5 0
8 *684:11 *812:11 0.00586698
9 gpio_ib_mode_sel[30] gpio_oeb[30] 0.000656057
10 *228:13 *684:11 0.0122669
11 *359:13 *684:11 0
12 *420:18 gpio_oeb[30] 8.24893e-06
*RES
1 *874:gpio_oeb[30] *684:5 70.4325 
2 *684:5 *684:11 19.6251 
3 *684:11 *684:13 975.735 
4 *684:13 gpio_oeb[30] 36.8312 
*END

*D_NET *685 0.190132
*CONN
*P gpio_oeb[31] O
*I *874:gpio_oeb[31] O *D counter_gpio_config_example
*CAP
1 gpio_oeb[31] 0.0194412
2 *874:gpio_oeb[31] 0.00448177
3 *685:13 0.0484281
4 *685:11 0.0332384
5 *685:5 0.0087333
6 gpio_oeb[31] *729:17 0
7 *685:5 *688:23 0
8 *685:5 *768:5 0
9 *685:5 *787:7 0
10 *685:5 *807:13 0.000637959
11 *685:13 *725:21 0.0612449
12 *685:13 *811:13 0.00448867
13 gpio_ib_mode_sel[31] gpio_oeb[31] 0
14 *359:13 *685:11 0.00943815
15 *536:13 *685:11 0
*RES
1 *874:gpio_oeb[31] *685:5 76.0425 
2 *685:5 *685:11 15.4299 
3 *685:11 *685:13 809.475 
4 *685:13 gpio_oeb[31] 42.8377 
*END

*D_NET *686 0.111401
*CONN
*P gpio_oeb[32] O
*I *874:gpio_oeb[32] O *D counter_gpio_config_example
*CAP
1 gpio_oeb[32] 0.00140836
2 *874:gpio_oeb[32] 0.0153835
3 *686:9 0.0240978
4 *686:7 0.0226894
5 *686:5 0.0153835
6 gpio_oeb[32] gpio_vtrip_sel[32] 0
7 *686:5 *742:7 0
8 *686:5 *772:13 0.0310304
9 *686:5 *793:9 0
10 *686:5 *814:13 0.00127119
11 gpio_ib_mode_sel[32] gpio_oeb[32] 0
12 *422:17 gpio_oeb[32] 0.000137002
13 *462:15 gpio_oeb[32] 0
*RES
1 *874:gpio_oeb[32] *686:5 401.422 
2 *686:5 *686:7 0.5 
3 *686:7 *686:9 50.2639 
4 *686:9 gpio_oeb[32] 11.1631 
*END

*D_NET *687 0.101709
*CONN
*P gpio_oeb[33] O
*I *874:gpio_oeb[33] O *D counter_gpio_config_example
*CAP
1 gpio_oeb[33] 0.00237473
2 *874:gpio_oeb[33] 0.00396473
3 *687:17 0.0323964
4 *687:15 0.0300217
5 *687:13 0.0110333
6 *687:11 0.0110333
7 *687:9 0.00396473
8 *687:9 *721:5 0
9 *687:9 *788:5 0
10 *687:13 *707:5 0
11 *687:13 *757:5 0
12 *406:13 *687:9 0.00232444
13 *423:17 gpio_oeb[33] 0.000661881
14 *423:17 *687:17 0
15 *537:13 *687:9 0
16 *673:13 *687:13 0.0039342
*RES
1 *874:gpio_oeb[33] *687:9 49.5348 
2 *687:9 *687:11 0.5 
3 *687:11 *687:13 198.495 
4 *687:13 *687:15 0.5 
5 *687:15 *687:17 66.899 
6 *687:17 gpio_oeb[33] 5.22057 
*END

*D_NET *688 0.0689285
*CONN
*P gpio_oeb[34] O
*I *874:gpio_oeb[34] O *D counter_gpio_config_example
*CAP
1 gpio_oeb[34] 0.00251679
2 *874:gpio_oeb[34] 0.00393703
3 *688:25 0.0254253
4 *688:23 0.0253025
5 *688:19 0.00633107
6 *688:19 *812:5 0
7 *688:25 *721:11 0.00104616
8 *688:25 *816:11 0.00139379
9 gpio_analog_pol[22] *688:19 0.00241659
10 gpio_ib_mode_sel[22] *688:23 0
11 gpio_ib_mode_sel[34] gpio_oeb[34] 0
12 gpio_ib_mode_sel[34] *688:25 0
13 gpio_inp_dis[22] *688:19 0
14 *141:13 *688:19 5.07926e-05
15 *317:13 *688:19 0.000508486
16 *424:44 gpio_oeb[34] 0
17 *536:13 *688:25 0
18 *678:5 *688:19 0
19 *685:5 *688:23 0
*RES
1 *874:gpio_oeb[34] *688:19 48.0261 
2 *688:19 *688:23 42.425 
3 *688:23 *688:25 51.167 
4 *688:25 gpio_oeb[34] 4.90643 
*END

*D_NET *689 0.101544
*CONN
*P gpio_oeb[35] O
*I *874:gpio_oeb[35] O *D counter_gpio_config_example
*CAP
1 gpio_oeb[35] 0.00728929
2 *874:gpio_oeb[35] 0.00835216
3 *689:13 0.00893068
4 *689:11 0.00999355
5 gpio_oeb[35] gpio_vtrip_sel[35] 0.0097969
6 *689:11 *735:11 0.0277079
7 *689:11 *779:16 0.00316346
8 *689:11 *787:11 0.000312484
9 *689:13 *691:13 0.00363078
10 gpio_ib_mode_sel[35] gpio_oeb[35] 0.000155952
11 *101:9 *689:13 0
12 *260:9 *689:13 0.00657072
13 *425:17 *689:11 0.0156402
14 *568:5 *689:11 0
15 *677:5 *689:11 0
*RES
1 *874:gpio_oeb[35] *689:11 47.8944 
2 *689:11 *689:13 76.095 
3 *689:13 gpio_oeb[35] 20.0643 
*END

*D_NET *690 0.183302
*CONN
*P gpio_oeb[36] O
*I *874:gpio_oeb[36] O *D counter_gpio_config_example
*CAP
1 gpio_oeb[36] 0.00322938
2 *874:gpio_oeb[36] 0.00142939
3 *690:17 0.0222907
4 *690:15 0.0190613
5 *690:13 0.0218853
6 *690:11 0.0233147
7 *690:11 *727:19 0.00130737
8 *690:11 *760:15 0.00211819
9 *690:11 *771:11 0
10 *690:11 *782:15 0.00014664
11 *690:11 *830:5 0
12 *690:13 *710:11 2.46013e-05
13 *690:13 *726:9 0.0027299
14 *690:13 *727:19 0.000650253
15 *690:13 *728:11 4.59533e-05
16 *690:13 *729:11 2.46013e-05
17 *690:13 *730:9 0.0039969
18 *690:13 *730:19 0.0082125
19 *690:13 *731:9 0.00295526
20 *690:13 *731:19 0.00851492
21 *690:13 *743:11 2.46013e-05
22 *690:13 *753:11 6.31958e-05
23 *690:13 *755:11 2.46013e-05
24 *690:13 *761:11 4.59533e-05
25 *690:13 *762:11 2.46013e-05
26 *690:13 *777:9 0.0123444
27 *690:13 *798:11 4.59533e-05
28 *690:13 *800:11 2.46013e-05
29 *690:13 *806:11 4.59533e-05
30 *690:13 *807:11 4.59533e-05
31 *690:13 *814:11 4.59533e-05
32 *690:13 *817:11 4.59533e-05
33 *690:13 *835:11 2.46013e-05
34 *690:17 *777:13 0.026347
35 gpio_ib_mode_sel[36] gpio_oeb[36] 0.00104468
36 *433:16 *690:13 0.000299346
37 *458:11 *690:17 0
38 *459:23 *690:13 0.00320572
39 *469:21 *690:13 0.000469363
40 *469:23 *690:13 0.00532852
41 *470:15 *690:11 6.66384e-05
42 *470:15 *690:13 0.00100552
43 *567:13 *690:13 4.57523e-06
44 *567:15 *690:11 0.000536006
45 *567:15 *690:13 0.00943711
46 *662:25 *690:13 0.000813326
*RES
1 *874:gpio_oeb[36] *690:11 7.79377 
2 *690:11 *690:13 58.6251 
3 *690:13 *690:15 0.5 
4 *690:15 *690:17 512.145 
5 *690:17 gpio_oeb[36] 7.7637 
*END

*D_NET *691 0.153223
*CONN
*P gpio_oeb[37] O
*I *874:gpio_oeb[37] O *D counter_gpio_config_example
*CAP
1 gpio_oeb[37] 0.00870564
2 *874:gpio_oeb[37] 0.000109001
3 *691:13 0.0273502
4 *691:11 0.0186446
5 *691:9 0.00939086
6 *691:7 0.00949987
7 *691:9 *694:9 0.0141193
8 *691:9 *734:11 0.0165008
9 *691:9 *735:11 0.00132353
10 *691:9 *822:8 2.57618e-05
11 gpio_ib_mode_sel[37] gpio_oeb[37] 0.000124795
12 *101:9 *691:13 0
13 *107:7 gpio_oeb[37] 0
14 *173:9 *691:13 0
15 *205:17 *691:9 0.034057
16 *260:9 *691:13 0.00752099
17 *373:7 gpio_oeb[37] 0.00222031
18 *529:9 *691:13 0
19 *676:5 *691:7 0
20 *680:5 *691:7 0
21 *689:13 *691:13 0.00363078
*RES
1 *874:gpio_oeb[37] *691:7 2.0825 
2 *691:7 *691:9 53.5851 
3 *691:9 *691:11 0.5 
4 *691:11 *691:13 399.945 
5 *691:13 gpio_oeb[37] 19.5526 
*END

*D_NET *692 0.0608629
*CONN
*P gpio_oeb[38] O
*I *874:gpio_oeb[38] O *D counter_gpio_config_example
*CAP
1 gpio_oeb[38] 0.000114574
2 *874:gpio_oeb[38] 0.00214554
3 *692:13 0.00522515
4 *692:11 0.0130561
5 *692:7 0.0100911
6 *692:7 *727:19 7.59573e-06
7 *692:7 *815:15 4.87899e-05
8 *692:7 *827:7 0
9 *692:11 *695:14 0
10 *692:11 *786:9 0.017501
11 gpio_ib_mode_sel[38] *692:13 0.0124829
12 *252:44 *692:13 0.000190181
*RES
1 *874:gpio_oeb[38] *692:7 34.7225 
2 *692:7 *692:11 27.5737 
3 *692:11 *692:13 142.545 
4 *692:13 gpio_oeb[38] 2.1075 
*END

*D_NET *693 0.12654
*CONN
*P gpio_oeb[39] O
*I *874:gpio_oeb[39] O *D counter_gpio_config_example
*CAP
1 gpio_oeb[39] 0.00112427
2 *874:gpio_oeb[39] 0.00924866
3 *693:9 0.0540215
4 *693:7 0.0528972
5 *693:5 0.00924866
6 *693:5 *778:11 0
7 *693:9 gpio_out[38] 0
8 gpio_analog_en[38] *693:9 0
9 gpio_analog_pol[39] *693:9 0
10 gpio_ib_mode_sel[39] gpio_oeb[39] 0
11 *431:13 *693:9 0
*RES
1 *874:gpio_oeb[39] *693:5 158.663 
2 *693:5 *693:7 0.5 
3 *693:7 *693:9 122.223 
4 *693:9 gpio_oeb[39] 19.1375 
*END

*D_NET *694 0.40725
*CONN
*P gpio_oeb[3] O
*I *874:gpio_oeb[3] O *D counter_gpio_config_example
*CAP
1 gpio_oeb[3] 0.0028604
2 *874:gpio_oeb[3] 0.000129501
3 *694:17 0.0886805
4 *694:15 0.0858201
5 *694:13 0.00573959
6 *694:11 0.00573959
7 *694:9 0.0103738
8 *694:7 0.0105033
9 gpio_oeb[3] *826:22 0.000578019
10 *694:7 *709:5 0
11 *694:7 *747:5 0
12 *694:9 *735:11 0.00180922
13 *694:9 *787:11 0.0309143
14 *694:13 *787:15 0.000730961
15 *694:17 *826:22 0
16 gpio_ib_mode_sel[3] gpio_oeb[3] 0
17 *108:13 *694:13 0
18 *188:9 *694:17 0.0408479
19 *205:17 *694:9 0.00111427
20 *230:9 *694:17 0.0784321
21 *238:17 *694:9 0.000478693
22 *259:29 *694:9 0.0029789
23 *282:17 *694:9 0.000516241
24 *672:11 *694:9 0.0180606
25 *672:13 *694:13 0.00682238
26 *691:9 *694:9 0.0141193
*RES
1 *874:gpio_oeb[3] *694:7 2.5925 
2 *694:7 *694:9 53.5268 
3 *694:9 *694:11 0.5 
4 *694:11 *694:13 141.885 
5 *694:13 *694:15 0.5 
6 *694:15 *694:17 292.158 
7 *694:17 gpio_oeb[3] 6.05657 
*END

*D_NET *695 0.308794
*CONN
*P gpio_oeb[40] O
*I *874:gpio_oeb[40] O *D counter_gpio_config_example
*CAP
1 gpio_oeb[40] 9.74494e-05
2 *874:gpio_oeb[40] 0.000300423
3 *695:22 0.00357828
4 *695:20 0.00363864
5 *695:18 0.00489973
6 *695:16 0.00474193
7 *695:14 0.0440428
8 *695:12 0.0440428
9 *695:10 0.0591123
10 *695:8 0.0594128
11 *695:8 *823:6 0.000667411
12 *695:10 *753:13 0
13 *695:14 *786:9 0
14 gpio_ib_mode_sel[40] *695:22 0
15 *205:17 *695:8 0.000162581
16 *388:17 *695:14 0.056992
17 *428:15 *695:14 0.0271045
18 *477:11 *695:14 0
19 *692:11 *695:14 0
*RES
1 *874:gpio_oeb[40] *695:8 2.05767 
2 *695:8 *695:10 131.391 
3 *695:10 *695:12 0.5 
4 *695:12 *695:14 145.035 
5 *695:14 *695:16 0.5 
6 *695:16 *695:18 85.14 
7 *695:18 *695:20 2.865 
8 *695:20 *695:22 62.1 
9 *695:22 gpio_oeb[40] 1.7925 
*END

*D_NET *696 0.29506
*CONN
*P gpio_oeb[41] O
*I *874:gpio_oeb[41] O *D counter_gpio_config_example
*CAP
1 gpio_oeb[41] 0.000921791
2 *874:gpio_oeb[41] 0.000248857
3 *696:18 0.00330208
4 *696:16 0.00238029
5 *696:14 0.0781381
6 *696:12 0.0781381
7 *696:10 0.0442371
8 *696:8 0.044486
9 *696:8 *823:6 0.000761796
10 *696:10 *807:13 0.037691
11 *696:10 *835:13 0
12 *696:14 *825:14 0
13 gpio_ib_mode_sel[41] gpio_oeb[41] 2.299e-05
14 *205:17 *696:8 0.00019955
15 *211:17 *696:14 0
16 *345:13 *696:18 0
17 *345:17 *696:18 0
18 *432:23 gpio_oeb[41] 0
19 *432:23 *696:18 0.00453205
*RES
1 *874:gpio_oeb[41] *696:8 2.1742 
2 *696:8 *696:10 143.622 
3 *696:10 *696:12 0.5 
4 *696:12 *696:14 182.325 
5 *696:14 *696:16 0.5 
6 *696:16 *696:18 61.9425 
7 *696:18 gpio_oeb[41] 20.035 
*END

*D_NET *697 0.275643
*CONN
*P gpio_oeb[42] O
*I *874:gpio_oeb[42] O *D counter_gpio_config_example
*CAP
1 gpio_oeb[42] 8.44018e-05
2 *874:gpio_oeb[42] 0.00330378
3 *697:13 0.00679933
4 *697:11 0.00671493
5 *697:9 0.0589399
6 *697:7 0.0589399
7 *697:5 0.00330378
8 *697:5 *737:5 0
9 *697:5 *753:11 0
10 *301:13 *697:9 0.137557
11 *302:13 *697:9 0
*RES
1 *874:gpio_oeb[42] *697:5 54.6225 
2 *697:5 *697:7 0.5 
3 *697:7 *697:9 214.343 
4 *697:9 *697:11 0.5 
5 *697:11 *697:13 122.145 
6 *697:13 gpio_oeb[42] 1.5525 
*END

*D_NET *698 0.309953
*CONN
*P gpio_oeb[43] O
*I *874:gpio_oeb[43] O *D counter_gpio_config_example
*CAP
1 gpio_oeb[43] 0.00695146
2 *874:gpio_oeb[43] 0.00294082
3 *698:11 0.00695146
4 *698:9 0.0667304
5 *698:7 0.0667304
6 *698:5 0.00294082
7 *698:5 *782:15 0
8 *698:5 *792:11 0
9 *302:13 *698:9 0.156708
10 *434:13 *698:9 0
*RES
1 *874:gpio_oeb[43] *698:5 49.5225 
2 *698:5 *698:7 0.5 
3 *698:7 *698:9 243.185 
4 *698:9 *698:11 0.5 
5 *698:11 gpio_oeb[43] 127.192 
*END

*D_NET *699 0.297421
*CONN
*P gpio_oeb[4] O
*I *874:gpio_oeb[4] O *D counter_gpio_config_example
*CAP
1 gpio_oeb[4] 0.00115422
2 *874:gpio_oeb[4] 0.00140927
3 *699:9 0.140877
4 *699:7 0.141132
5 *699:7 *752:5 0
6 *699:9 gpio_vtrip_sel[4] 0
7 gpio_ib_mode_sel[4] gpio_oeb[4] 0.00161168
8 gpio_ib_mode_sel[4] *699:9 0.00247123
9 *142:13 *699:9 0
10 *290:17 *699:9 0.00542069
11 *553:18 *699:9 0.00334485
*RES
1 *874:gpio_oeb[4] *699:7 21.9725 
2 *699:7 *699:9 329.07 
3 *699:9 gpio_oeb[4] 5.0681 
*END

*D_NET *700 0.550241
*CONN
*P gpio_oeb[5] O
*I *874:gpio_oeb[5] O *D counter_gpio_config_example
*CAP
1 gpio_oeb[5] 0.003211
2 *874:gpio_oeb[5] 5.41986e-05
3 *700:13 0.0346238
4 *700:11 0.0314128
5 *700:9 0.066159
6 *700:7 0.0662132
7 *700:7 *801:11 0
8 gpio_analog_pol[1] *700:13 0.00106255
9 gpio_ib_mode_sel[5] gpio_oeb[5] 0
10 *874:gpio_in[12] *700:9 0.00060849
11 *874:gpio_in[14] *700:9 0.00259499
12 *874:gpio_in[17] *700:9 0.00073826
13 *874:gpio_in[1] *700:9 0.000107567
14 *348:13 *700:13 0.00837045
15 *436:17 gpio_oeb[5] 0
16 *443:15 *700:9 0.0368901
17 *445:15 *700:9 0.00385997
18 *459:23 *700:9 0.00460289
19 *480:11 *700:13 0.00628147
20 *483:11 *700:13 0.0834288
21 *483:15 *700:9 0.199269
22 *683:11 *700:9 0.000752722
*RES
1 *874:gpio_oeb[5] *700:7 2.945 
2 *700:7 *700:9 1906.57 
3 *700:9 *700:11 2 
4 *700:11 *700:13 942.458 
5 *700:13 gpio_oeb[5] 7.04803 
*END

*D_NET *701 0.613151
*CONN
*P gpio_oeb[6] O
*I *874:gpio_oeb[6] O *D counter_gpio_config_example
*CAP
1 gpio_oeb[6] 0.00261203
2 *874:gpio_oeb[6] 0.000796168
3 *701:13 0.0638723
4 *701:11 0.0612603
5 *701:9 0.0743794
6 *701:7 0.0751756
7 *701:7 *713:7 0
8 *701:7 *819:7 0
9 *701:9 *702:9 0.000640561
10 *701:9 *713:17 0.0554806
11 *701:9 *714:19 0.000260539
12 *701:9 *794:9 0.215021
13 *701:9 *832:9 0
14 gpio_ib_mode_sel[6] gpio_oeb[6] 0.00219678
15 gpio_inp_dis[5] *701:13 0.00261004
16 *529:13 *701:9 0.057832
17 *564:10 *701:9 0.00101297
*RES
1 *874:gpio_oeb[6] *701:7 12.2825 
2 *701:7 *701:9 342.355 
3 *701:9 *701:11 0.5 
4 *701:11 *701:13 1119.05 
5 *701:13 gpio_oeb[6] 10.6101 
*END

*D_NET *702 0.624279
*CONN
*P gpio_oeb[7] O
*I *874:gpio_oeb[7] O *D counter_gpio_config_example
*CAP
1 gpio_oeb[7] 0.00441065
2 *874:gpio_oeb[7] 0.00087908
3 *702:13 0.102933
4 *702:11 0.0985228
5 *702:9 0.0551491
6 *702:7 0.0560282
7 gpio_oeb[7] gpio_vtrip_sel[7] 0
8 *702:7 *780:5 0
9 *702:7 *836:11 0
10 *702:9 *718:11 0.0229115
11 *702:9 *794:9 0.204499
12 *702:9 *832:9 0.0313409
13 gpio_ib_mode_sel[7] gpio_oeb[7] 0.000399076
14 *564:10 *702:9 0.0465653
15 *701:9 *702:9 0.000640561
*RES
1 *874:gpio_oeb[7] *702:7 13.3025 
2 *702:7 *702:9 317.242 
3 *702:9 *702:11 0.5 
4 *702:11 *702:13 1787.15 
5 *702:13 gpio_oeb[7] 9.98417 
*END

*D_NET *703 0.531529
*CONN
*P gpio_oeb[8] O
*I *874:gpio_oeb[8] O *D counter_gpio_config_example
*CAP
1 gpio_oeb[8] 0.0114177
2 *874:gpio_oeb[8] 0.0124356
3 *703:187 0.064783
4 *703:185 0.0533653
5 *703:183 0.124293
6 *703:181 0.124293
7 *703:179 0.0128654
8 *703:177 0.0133042
9 *703:173 0.0130534
10 *703:115 0.0277186
11 *703:63 0.0275396
12 gpio_oeb[8] gpio_vtrip_sel[8] 0
13 *703:63 *784:28 0.0150124
14 *703:115 *784:14 0.0103454
15 *703:115 *784:28 0.00129142
16 *703:173 *740:16 0.000545062
17 *703:173 *784:12 0.015474
18 *703:173 *784:14 0.00327016
19 *703:173 *826:14 0.000130473
20 *703:177 *749:19 0.00014692
21 *703:177 *796:11 0
22 *703:179 *796:11 0
23 gpio_ib_mode_sel[8] gpio_oeb[8] 0
24 *439:13 gpio_oeb[8] 0
25 *661:15 *703:177 0.000101579
26 *669:7 *703:63 0
27 *683:11 *703:63 0.000142949
*RES
1 *874:gpio_oeb[8] *703:63 45.5306 
2 *703:63 *703:115 49.3493 
3 *703:115 *703:173 46.6494 
4 *703:173 *703:177 7.68 
5 *703:177 *703:179 219.93 
6 *703:179 *703:181 0.5 
7 *703:181 *703:183 297.664 
8 *703:183 *703:185 0.5 
9 *703:185 *703:187 970.635 
10 *703:187 gpio_oeb[8] 25.4882 
*END

*D_NET *704 0.491965
*CONN
*P gpio_oeb[9] O
*I *874:gpio_oeb[9] O *D counter_gpio_config_example
*CAP
1 gpio_oeb[9] 0.00555436
2 *874:gpio_oeb[9] 0.021858
3 *704:13 0.0598059
4 *704:11 0.0542515
5 *704:9 0.141462
6 *704:7 0.141462
7 *704:5 0.021858
8 *704:5 *781:15 0
9 *136:13 *704:13 0.0375952
10 *271:19 *704:5 6.73395e-05
11 *440:13 gpio_oeb[9] 0.00805128
12 *667:9 *704:9 0
13 *668:5 *704:5 0
*RES
1 *874:gpio_oeb[9] *704:5 375.413 
2 *704:5 *704:7 0.5 
3 *704:7 *704:9 337.169 
4 *704:9 *704:11 0.5 
5 *704:11 *704:13 986.955 
6 *704:13 gpio_oeb[9] 17.2447 
*END

*D_NET *705 0.424852
*CONN
*P gpio_out[0] O
*I *874:gpio_out[0] O *D counter_gpio_config_example
*CAP
1 gpio_out[0] 9.95452e-05
2 *874:gpio_out[0] 0.0155067
3 *705:45 0.127858
4 *705:43 0.127758
5 *705:41 0.024474
6 *705:39 0.0399806
7 *705:39 *740:18 0
8 *705:39 *749:19 0.00140247
9 *705:39 *749:23 0.00224065
10 *705:39 *757:5 0
11 *705:39 *779:16 0.000414175
12 *705:39 *787:11 0.000996938
13 *705:39 *824:8 0.00209447
14 *705:39 *825:8 4.10074e-05
15 *705:39 *826:12 0.000538328
16 *705:39 *829:16 0.00903756
17 gpio_holdover[0] *705:45 0.00385592
18 *104:13 *705:41 0
19 *146:23 *705:39 0.00150929
20 *146:27 *705:39 0.000130891
21 *177:17 *705:45 0
22 *205:17 *705:39 0.00580302
23 *240:19 *705:39 0.000279985
24 *278:13 *705:41 0
25 *278:23 *705:41 0.00248195
26 *367:15 *705:41 0.000259454
27 *367:17 *705:41 0.00064437
28 *372:23 *705:39 2.50034e-05
29 *410:15 *705:41 0.00299614
30 *425:17 *705:39 0.00129721
31 *545:18 *705:39 2.77227e-05
32 *661:23 *705:41 0.000881977
33 *661:25 *705:41 0.052216
*RES
1 *874:gpio_out[0] *705:39 43.4069 
2 *705:39 *705:41 663.487 
3 *705:41 *705:43 0.5 
4 *705:43 *705:45 296.682 
5 *705:45 gpio_out[0] 0.262833 
*END

*D_NET *706 0.64722
*CONN
*P gpio_out[10] O
*I *874:gpio_out[10] O *D counter_gpio_config_example
*CAP
1 gpio_out[10] 5.30108e-05
2 *874:gpio_out[10] 0.000894219
3 *706:17 0.144364
4 *706:15 0.144311
5 *706:13 0.13905
6 *706:11 0.139944
7 *706:11 *711:19 0
8 *706:11 *727:19 0.000599579
9 *706:11 *813:7 0
10 *706:13 *707:5 0.000294576
11 *706:13 *767:13 0.00724836
12 *706:13 *790:5 0.0327762
13 *706:17 gpio_vtrip_sel[10] 0
14 gpio_holdover[10] *706:17 0
15 *310:17 *706:17 0
16 *671:13 *706:13 0.0376588
17 *673:13 *706:13 0
18 *683:11 *706:11 2.46013e-05
*RES
1 *874:gpio_out[10] *706:11 4.17897 
2 *706:11 *706:13 383.848 
3 *706:13 *706:15 0.5 
4 *706:15 *706:17 330.798 
5 *706:17 gpio_out[10] 0.139967 
*END

*D_NET *707 0.486465
*CONN
*P gpio_out[11] O
*I *874:gpio_out[11] O *D counter_gpio_config_example
*CAP
1 gpio_out[11] 0.00258436
2 *874:gpio_out[11] 0.0222805
3 *707:19 0.0152396
4 *707:13 0.0837408
5 *707:11 0.0710856
6 *707:9 0.117096
7 *707:7 0.117096
8 *707:5 0.0222805
9 *707:5 *790:5 0
10 gpio_holdover[11] gpio_out[11] 0.000275998
11 *355:17 gpio_out[11] 0
12 *355:17 *707:19 0.02979
13 *671:13 *707:5 0.00470176
14 *687:13 *707:5 0
15 *706:13 *707:5 0.000294576
*RES
1 *874:gpio_out[11] *707:5 396.323 
2 *707:5 *707:7 0.5 
3 *707:7 *707:9 280.242 
4 *707:9 *707:11 0.5 
5 *707:11 *707:13 1291.94 
6 *707:13 *707:19 46.0177 
7 *707:19 gpio_out[11] 5.41943 
*END

*D_NET *708 0.593175
*CONN
*P gpio_out[12] O
*I *874:gpio_out[12] O *D counter_gpio_config_example
*CAP
1 gpio_out[12] 0.00665913
2 *874:gpio_out[12] 0.0150373
3 *708:13 0.0949068
4 *708:11 0.0882476
5 *708:9 0.129765
6 *708:7 0.129765
7 *708:5 0.0150373
8 gpio_out[12] *796:17 0
9 *708:5 *773:5 0
10 *708:9 *712:9 0
11 gpio_holdover[12] gpio_out[12] 0.0116347
12 *137:17 *708:13 0.0705359
13 *335:17 *708:9 0.0315862
14 *684:5 *708:5 0
*RES
1 *874:gpio_out[12] *708:5 256.582 
2 *708:5 *708:7 0.5 
3 *708:7 *708:9 326.273 
4 *708:9 *708:11 0.5 
5 *708:11 *708:13 1602.53 
6 *708:13 gpio_out[12] 21.3664 
*END

*D_NET *709 0.618861
*CONN
*P gpio_out[13] O
*I *874:gpio_out[13] O *D counter_gpio_config_example
*CAP
1 gpio_out[13] 0.148832
2 *874:gpio_out[13] 0.12135
3 *709:12 0
4 *709:7 0.148832
5 *709:5 0.12135
6 *709:5 *722:13 0
7 *709:5 *762:13 0.0784962
8 *709:5 *763:5 0
9 gpio_dm2[13] gpio_out[13] 0
10 gpio_holdover[13] gpio_out[13] 0
11 *357:25 gpio_out[13] 0
12 *401:17 gpio_out[13] 0
13 *694:7 *709:5 0
*RES
1 *874:gpio_out[13] *709:5 2195.09 
2 *709:5 *709:7 0.5 
3 *709:7 gpio_out[13] 351.22 
4 gpio_out[13] *709:12 0.0616216 
*END

*D_NET *710 0.760469
*CONN
*P gpio_out[14] O
*I *874:gpio_out[14] O *D counter_gpio_config_example
*CAP
1 gpio_out[14] 0.00288202
2 *874:gpio_out[14] 0.000105122
3 *710:21 0.0361066
4 *710:19 0.0332246
5 *710:17 0.14211
6 *710:15 0.14211
7 *710:13 0.186909
8 *710:11 0.187014
9 *710:11 *814:11 0
10 *710:11 *819:7 0
11 *710:13 *798:13 0
12 *710:13 *814:13 0.0282829
13 *192:13 *710:17 0
14 *358:17 gpio_out[14] 0.00170021
15 *690:13 *710:11 2.46013e-05
*RES
1 *874:gpio_out[14] *710:11 2.13963 
2 *710:11 *710:13 451.463 
3 *710:13 *710:15 0.5 
4 *710:15 *710:17 342.267 
5 *710:17 *710:19 0.5 
6 *710:19 *710:21 603.945 
7 *710:21 gpio_out[14] 7.62057 
*END

*D_NET *711 1.10892
*CONN
*P gpio_out[15] O
*I *874:gpio_out[15] O *D counter_gpio_config_example
*CAP
1 gpio_out[15] 0.00066438
2 *874:gpio_out[15] 0.1515
3 *711:21 0.231776
4 *711:19 0.382611
5 *711:19 *714:19 0.0673784
6 *711:19 *715:9 0.00902141
7 *711:19 *717:9 0.00639219
8 *711:19 *727:19 0.000151765
9 *711:19 *744:9 0.0322689
10 *711:19 *756:9 0.0305415
11 *711:19 *831:9 0.0384235
12 *711:19 *833:9 0.0326265
13 *711:21 *834:13 0.0281438
14 gpio_holdover[15] gpio_out[15] 0
15 *95:13 gpio_out[15] 0.00155467
16 *226:13 *711:21 0
17 *313:13 *711:21 0
18 *389:13 *711:19 0.0370537
19 *477:11 *711:19 0.009219
20 *667:13 *711:21 0.049596
21 *706:11 *711:19 0
*RES
1 *874:gpio_out[15] *711:19 36.7869 
2 *711:19 *711:21 576.701 
3 *711:21 gpio_out[15] 4.3829 
*END

*D_NET *712 0.50647
*CONN
*P gpio_out[16] O
*I *874:gpio_out[16] O *D counter_gpio_config_example
*CAP
1 gpio_out[16] 0.137442
2 *874:gpio_out[16] 0.0147341
3 *712:11 0.137442
4 *712:9 0.098482
5 *712:7 0.098482
6 *712:5 0.0147341
7 *712:5 *809:11 0
8 gpio_holdover[16] gpio_out[16] 0
9 *423:17 *712:9 0.00515374
10 *661:15 *712:5 0
11 *708:9 *712:9 0
*RES
1 *874:gpio_out[16] *712:5 251.482 
2 *712:5 *712:7 0.5 
3 *712:7 *712:9 240.038 
4 *712:9 *712:11 0.5 
5 *712:11 gpio_out[16] 2397.56 
*END

*D_NET *713 0.6275
*CONN
*P gpio_out[17] O
*I *874:gpio_out[17] O *D counter_gpio_config_example
*CAP
1 gpio_out[17] 0.188122
2 *874:gpio_out[17] 0.000939674
3 *713:19 0.188122
4 *713:17 0.0599796
5 *713:15 0.0659598
6 *713:7 0.00691984
7 *713:7 *730:7 0
8 *713:15 *714:19 0.00353448
9 *713:15 *832:9 0.029221
10 gpio_holdover[17] gpio_out[17] 0
11 *564:10 *713:15 0.029221
12 *701:7 *713:7 0
13 *701:9 *713:17 0.0554806
*RES
1 *874:gpio_out[17] *713:7 14.8325 
2 *713:7 *713:15 49.6834 
3 *713:15 *713:17 1051.67 
4 *713:17 *713:19 2 
5 *713:19 gpio_out[17] 3409.53 
*END

*D_NET *714 0.747399
*CONN
*P gpio_out[18] O
*I *874:gpio_out[18] O *D counter_gpio_config_example
*CAP
1 gpio_out[18] 0.000572527
2 *874:gpio_out[18] 0.0710639
3 *714:21 0.231454
4 *714:19 0.301946
5 *714:19 *715:7 0
6 *714:19 *715:9 0.000216381
7 *714:19 *717:9 0.000432762
8 *714:19 *744:9 0.000462659
9 *714:19 *756:9 0.0003118
10 *714:19 *831:9 0.0004203
11 *714:19 *832:9 0.0163199
12 *714:19 *833:9 0.000504228
13 gpio_dm2[18] gpio_out[18] 0
14 gpio_holdover[18] gpio_out[18] 0
15 gpio_holdover[18] *714:21 0.0354602
16 *389:13 *714:19 0.000216381
17 *529:13 *714:19 8.67502e-05
18 *564:10 *714:19 0.0167577
19 *701:9 *714:19 0.000260539
20 *711:19 *714:19 0.0673784
21 *713:15 *714:19 0.00353448
*RES
1 *874:gpio_out[18] *714:19 29.6124 
2 *714:19 *714:21 574.892 
3 *714:21 gpio_out[18] 10.3579 
*END

*D_NET *715 0.640401
*CONN
*P gpio_out[19] O
*I *874:gpio_out[19] O *D counter_gpio_config_example
*CAP
1 gpio_out[19] 0.00139289
2 *874:gpio_out[19] 0.00119152
3 *715:13 0.143385
4 *715:11 0.141992
5 *715:9 0.0113951
6 *715:7 0.0125866
7 *715:9 *756:9 0.0588475
8 gpio_dm1[19] gpio_out[19] 0
9 gpio_holdover[19] gpio_out[19] 0
10 gpio_ib_mode_sel[19] *715:13 0
11 gpio_oeb[19] *715:13 0.201519
12 *389:13 *715:9 0.058853
13 *711:19 *715:9 0.00902141
14 *714:19 *715:7 0
15 *714:19 *715:9 0.000216381
*RES
1 *874:gpio_out[19] *715:7 18.9125 
2 *715:7 *715:9 88.7781 
3 *715:9 *715:11 0.5 
4 *715:11 *715:13 3407.42 
5 *715:13 gpio_out[19] 12.1933 
*END

*D_NET *716 0.411007
*CONN
*P gpio_out[1] O
*I *874:gpio_out[1] O *D counter_gpio_config_example
*CAP
1 gpio_out[1] 0.000175353
2 *874:gpio_out[1] 0.000659451
3 *716:27 0.117097
4 *716:25 0.116922
5 *716:23 0.0153747
6 *716:21 0.0153747
7 *716:19 0.00608586
8 *716:17 0.00674532
9 *716:17 *764:5 0
10 *716:17 *823:6 0.000309
11 *716:19 *793:11 0.0327285
12 *716:27 gpio_vtrip_sel[1] 0
13 *130:11 *716:27 0.00126292
14 *148:13 *716:23 0
15 *205:17 *716:17 0.00120563
16 *205:17 *716:19 0.000943722
17 *222:9 *716:27 0.0172409
18 *238:17 *716:19 0.000208669
19 *259:29 *716:19 0.00468242
20 *282:17 *716:19 0.000174039
21 *320:17 *716:27 0
22 *479:11 *716:23 0.0405192
23 *531:13 *716:23 0.000472724
24 *533:21 *716:23 0
25 *544:13 *716:23 0
26 *561:13 *716:23 0.0134538
27 *661:17 *716:19 0.0166253
28 *672:11 *716:19 0.00274627
*RES
1 *874:gpio_out[1] *716:17 7.51253 
2 *716:17 *716:19 302.67 
3 *716:19 *716:21 2 
4 *716:21 *716:23 493.402 
5 *716:23 *716:25 0.5 
6 *716:25 *716:27 294.876 
7 *716:27 gpio_out[1] 0.490833 
*END

*D_NET *717 0.517673
*CONN
*P gpio_out[20] O
*I *874:gpio_out[20] O *D counter_gpio_config_example
*CAP
1 gpio_out[20] 7.849e-05
2 *874:gpio_out[20] 0.0012448
3 *717:13 0.130207
4 *717:11 0.130129
5 *717:9 0.0163615
6 *717:7 0.0176063
7 *717:7 *806:11 0
8 gpio_holdover[20] gpio_out[20] 0
9 gpio_holdover[20] *717:13 0
10 *375:17 *717:13 0.0015003
11 *389:13 *717:9 0.0395133
12 *436:13 *717:13 0.00936119
13 *477:11 *717:9 0
14 *541:13 *717:13 0.141651
15 *567:27 *717:13 0.0231949
16 *711:19 *717:9 0.00639219
17 *714:19 *717:9 0.000432762
*RES
1 *874:gpio_out[20] *717:7 19.9325 
2 *717:7 *717:9 59.7031 
3 *717:9 *717:11 0.5 
4 *717:11 *717:13 3416.59 
5 *717:13 gpio_out[20] 1.35 
*END

*D_NET *718 0.494163
*CONN
*P gpio_out[21] O
*I *874:gpio_out[21] O *D counter_gpio_config_example
*CAP
1 gpio_out[21] 0.003295
2 *874:gpio_out[21] 0.000873316
3 *718:13 0.199542
4 *718:11 0.203308
5 *718:7 0.00793393
6 *718:7 *743:11 0
7 *718:11 *794:9 0.00410755
8 gpio_holdover[21] gpio_out[21] 0
9 gpio_oeb[21] gpio_out[21] 0.0131305
10 *95:13 gpio_out[21] 0.000519526
11 *99:13 gpio_out[21] 0.0073279
12 *564:10 *718:11 0.0312138
13 *702:9 *718:11 0.0229115
*RES
1 *874:gpio_out[21] *718:7 13.8125 
2 *718:7 *718:11 47.734 
3 *718:11 *718:13 3409.46 
4 *718:13 gpio_out[21] 24.4307 
*END

*D_NET *719 0.336794
*CONN
*P gpio_out[22] O
*I *874:gpio_out[22] O *D counter_gpio_config_example
*CAP
1 gpio_out[22] 0.0582734
2 *874:gpio_out[22] 0.0605717
3 *719:11 0.0620675
4 *719:5 0.0643658
5 *719:5 *751:13 0.0806762
6 *719:5 *775:5 0
7 *719:5 *792:13 0.010839
8 *719:5 *834:5 0
9 *719:11 *765:17 0
10 gpio_holdover[22] gpio_out[22] 0
*RES
1 *874:gpio_out[22] *719:5 1591.76 
2 *719:5 *719:11 9.37013 
3 *719:11 gpio_out[22] 1057.28 
*END

*D_NET *720 0.353991
*CONN
*P gpio_out[23] O
*I *874:gpio_out[23] O *D counter_gpio_config_example
*CAP
1 gpio_out[23] 0.0011224
2 *874:gpio_out[23] 0.121437
3 *720:11 0.0132339
4 *720:5 0.133548
5 *720:5 *802:5 0
6 *720:5 *809:13 0
7 gpio_holdover[23] gpio_out[23] 0.00232292
8 *538:13 *720:11 0.0271524
9 *676:9 *720:11 0
10 *680:13 *720:5 0.0551745
*RES
1 *874:gpio_out[23] *720:5 2621.96 
2 *720:5 *720:11 42.9317 
3 *720:11 gpio_out[23] 28.5675 
*END

*D_NET *721 0.391539
*CONN
*P gpio_out[24] O
*I *874:gpio_out[24] O *D counter_gpio_config_example
*CAP
1 gpio_out[24] 0.0201205
2 *874:gpio_out[24] 0.00491029
3 *721:13 0.137236
4 *721:11 0.125541
5 *721:5 0.0133359
6 gpio_out[24] gpio_vtrip_sel[24] 0
7 gpio_out[24] *809:17 0
8 *721:13 *776:5 0.00432579
9 *721:13 *789:5 0
10 gpio_holdover[24] gpio_out[24] 0
11 gpio_ib_mode_sel[24] gpio_out[24] 0
12 *465:11 *721:13 0.066751
13 *468:13 *721:13 0
14 *536:13 *721:11 0.0182734
15 *667:5 *721:13 0
16 *687:9 *721:5 0
17 *688:25 *721:11 0.00104616
*RES
1 *874:gpio_out[24] *721:5 81.1425 
2 *721:5 *721:11 29.5304 
3 *721:11 *721:13 2423.62 
4 *721:13 gpio_out[24] 47.2229 
*END

*D_NET *722 0.294055
*CONN
*P gpio_out[25] O
*I *874:gpio_out[25] O *D counter_gpio_config_example
*CAP
1 gpio_out[25] 0.00023911
2 *874:gpio_out[25] 0.00334765
3 *722:17 0.0220353
4 *722:15 0.0217961
5 *722:13 0.100093
6 *722:11 0.104486
7 *722:5 0.00774054
8 *722:5 *797:5 0
9 *722:5 *834:5 0
10 *722:13 *747:5 0
11 *722:13 *761:13 0.00849544
12 *722:13 *762:13 0.0168889
13 *722:17 gpio_vtrip_sel[25] 0
14 *229:13 *722:11 0
15 *370:17 *722:17 0
16 *407:13 *722:11 0.00893265
17 *709:5 *722:13 0
*RES
1 *874:gpio_out[25] *722:5 55.1325 
2 *722:5 *722:11 14.9637 
3 *722:11 *722:13 1813.67 
4 *722:13 *722:15 0.5 
5 *722:15 *722:17 50.274 
6 *722:17 gpio_out[25] 0.687167 
*END

*D_NET *723 0.312297
*CONN
*P gpio_out[26] O
*I *874:gpio_out[26] O *D counter_gpio_config_example
*CAP
1 gpio_out[26] 0.000129802
2 *874:gpio_out[26] 0.0945774
3 *723:9 0.0345325
4 *723:7 0.0344027
5 *723:5 0.0945774
6 *723:5 *724:13 0.0540775
7 *723:5 *766:5 0
8 *723:9 gpio_vtrip_sel[26] 0
9 gpio_holdover[26] *723:9 0
10 *195:13 *723:9 0
11 *663:13 *723:9 0
*RES
1 *874:gpio_out[26] *723:5 1708.55 
2 *723:5 *723:7 0.5 
3 *723:7 *723:9 76.8436 
4 *723:9 gpio_out[26] 0.373033 
*END

*D_NET *724 0.441559
*CONN
*P gpio_out[27] O
*I *874:gpio_out[27] O *D counter_gpio_config_example
*CAP
1 gpio_out[27] 0.000973018
2 *874:gpio_out[27] 9.07256e-05
3 *724:17 0.0333926
4 *724:15 0.0324196
5 *724:13 0.134913
6 *724:11 0.135003
7 *724:11 *765:11 0
8 *724:13 *725:13 0
9 *724:13 *736:10 0.0254224
10 *724:13 *765:13 0.0248579
11 *724:17 gpio_vtrip_sel[27] 0
12 gpio_holdover[27] gpio_out[27] 0.000384197
13 gpio_holdover[27] *724:17 0
14 *372:29 *724:17 0
15 *683:11 *724:11 2.46013e-05
16 *723:5 *724:13 0.0540775
*RES
1 *874:gpio_out[27] *724:11 2.13963 
2 *724:11 *724:13 387.638 
3 *724:13 *724:15 0.5 
4 *724:15 *724:17 75.1729 
5 *724:17 gpio_out[27] 6.0479 
*END

*D_NET *725 0.428608
*CONN
*P gpio_out[28] O
*I *874:gpio_out[28] O *D counter_gpio_config_example
*CAP
1 gpio_out[28] 0.0188016
2 *874:gpio_out[28] 0.000109143
3 *725:21 0.0459423
4 *725:19 0.0422313
5 *725:13 0.0658054
6 *725:11 0.0508239
7 gpio_out[28] gpio_vtrip_sel[28] 0
8 *725:11 *821:7 0
9 *725:13 *736:10 0
10 *725:13 *767:5 0.00644395
11 *725:13 *836:13 0.031897
12 *725:21 *811:13 0.105263
13 gpio_dm2[28] gpio_out[28] 0
14 *670:7 *725:11 0
15 *683:11 *725:11 4.59533e-05
16 *685:13 *725:21 0.0612449
17 *724:13 *725:13 0
*RES
1 *874:gpio_out[28] *725:11 2.1979 
2 *725:11 *725:13 159.557 
3 *725:13 *725:19 35.3862 
4 *725:19 *725:21 1188.41 
5 *725:21 gpio_out[28] 42.7845 
*END

*D_NET *726 0.308578
*CONN
*P gpio_out[29] O
*I *874:gpio_out[29] O *D counter_gpio_config_example
*CAP
1 gpio_out[29] 0.000142515
2 *874:gpio_out[29] 5.71536e-05
3 *726:21 0.110115
4 *726:19 0.115487
5 *726:9 0.0152104
6 *726:7 0.00975314
7 *726:9 *731:9 0.0256656
8 *726:19 *730:19 0.000247938
9 *726:19 *731:19 2.9617e-05
10 *726:19 *777:9 0.000212994
11 *726:19 *820:11 0.00784902
12 *726:19 *821:13 0.000118213
13 *726:21 gpio_vtrip_sel[37] 0
14 gpio_analog_pol[32] *726:21 0.000423568
15 gpio_dm0[31] *726:21 0.000685619
16 gpio_dm0[37] *726:21 0.00207934
17 gpio_dm1[37] *726:21 0.00125887
18 gpio_dm2[33] *726:21 0.000656975
19 gpio_holdover[29] gpio_out[29] 0.000139574
20 gpio_holdover[36] *726:21 0
21 gpio_ib_mode_sel[32] *726:21 0.000506975
22 *337:21 *726:21 0.000396346
23 *338:21 *726:21 0
24 *339:35 *726:21 0.00521311
25 *381:21 *726:21 0
26 *425:21 *726:21 0
27 *427:21 *726:21 0
28 *433:16 *726:9 0.000119591
29 *459:21 *726:19 0.00373211
30 *459:23 *726:9 0.00141823
31 *460:21 *726:19 0.00175084
32 *462:19 *726:19 0
33 *553:22 *726:21 0
34 *557:21 *726:21 0.00257827
35 *690:13 *726:9 0.0027299
*RES
1 *874:gpio_out[29] *726:7 2.945 
2 *726:7 *726:9 259.2 
3 *726:9 *726:19 25.5585 
4 *726:19 *726:21 1977.97 
5 *726:21 gpio_out[29] 0.878733 
*END

*D_NET *727 0.502589
*CONN
*P gpio_out[2] O
*I *874:gpio_out[2] O *D counter_gpio_config_example
*CAP
1 gpio_out[2] 0.00148961
2 *874:gpio_out[2] 0.00262745
3 *727:29 0.0900478
4 *727:27 0.0885582
5 *727:25 0.00701339
6 *727:23 0.00701339
7 *727:21 0.00428237
8 *727:19 0.00690982
9 gpio_out[2] *833:13 0
10 *727:19 *760:15 0.00250954
11 *727:19 *792:11 8.28896e-05
12 *727:19 *805:11 4.43752e-05
13 *727:19 *815:15 3.59531e-06
14 *727:21 *760:15 0.00490087
15 *727:21 *782:17 0.0157614
16 *727:25 *771:13 0.0344626
17 *727:25 *815:17 0.0371137
18 gpio_analog_sel[2] *727:29 0
19 gpio_dm2[2] gpio_out[2] 0.000297251
20 gpio_holdover[2] gpio_out[2] 0.000269635
21 gpio_holdover[2] *727:29 0.000826057
22 *97:11 *727:29 0
23 *109:11 *727:29 0.00315085
24 *160:17 *727:25 0.000850566
25 *169:11 *727:29 0
26 *342:25 gpio_out[2] 0
27 *375:19 *727:29 0.177599
28 *469:23 *727:19 0.000266333
29 *479:15 *727:21 0.00981321
30 *546:13 *727:25 0
31 *567:15 *727:21 0.00087334
32 *567:21 *727:21 0.00106077
33 *683:11 *727:19 0.00204497
34 *690:11 *727:19 0.00130737
35 *690:13 *727:19 0.000650253
36 *692:7 *727:19 7.59573e-06
37 *706:11 *727:19 0.000599579
38 *711:19 *727:19 0.000151765
*RES
1 *874:gpio_out[2] *727:19 14.1545 
2 *727:19 *727:21 168.81 
3 *727:21 *727:23 2 
4 *727:23 *727:25 421.747 
5 *727:25 *727:27 0.5 
6 *727:27 *727:29 296.615 
7 *727:29 gpio_out[2] 7.56997 
*END

*D_NET *728 0.296547
*CONN
*P gpio_out[30] O
*I *874:gpio_out[30] O *D counter_gpio_config_example
*CAP
1 gpio_out[30] 0.00866536
2 *874:gpio_out[30] 0.000114745
3 *728:29 0.0404188
4 *728:27 0.0468742
5 *728:21 0.0544632
6 *728:19 0.0431236
7 *728:13 0.0373263
8 *728:11 0.0336598
9 *728:11 *874:resetb_l 0
10 *728:11 *729:11 0
11 *728:13 *729:13 0.00577569
12 *728:13 *806:13 0
13 *728:19 *729:13 0.00364043
14 *728:19 *806:13 0
15 *728:21 *729:13 0.00666337
16 *728:21 *806:13 0
17 *728:27 *798:17 0
18 gpio_holdover[30] gpio_out[30] 0.000491622
19 *122:193 *728:19 0.000123126
20 *135:11 *728:29 0
21 *200:17 gpio_out[30] 0
22 *376:17 gpio_out[30] 0.0151605
23 *690:13 *728:11 4.59533e-05
*RES
1 *874:gpio_out[30] *728:11 2.1979 
2 *728:11 *728:13 90.9771 
3 *728:13 *728:19 12.8161 
4 *728:19 *728:21 105.306 
5 *728:21 *728:27 36.2602 
6 *728:27 *728:29 577.935 
7 *728:29 gpio_out[30] 26.4521 
*END

*D_NET *729 0.312804
*CONN
*P gpio_out[31] O
*I *874:gpio_out[31] O *D counter_gpio_config_example
*CAP
1 gpio_out[31] 0.00190531
2 *874:gpio_out[31] 9.26045e-05
3 *729:17 0.0283293
4 *729:15 0.026424
5 *729:13 0.104771
6 *729:11 0.104864
7 *729:13 *753:13 0
8 *729:17 *817:25 0
9 gpio_analog_en[22] *729:13 0.0150673
10 gpio_holdover[31] gpio_out[31] 0.000178718
11 gpio_oeb[31] *729:17 0
12 *462:15 gpio_out[31] 0
13 *675:5 *729:13 0.0150673
14 *690:13 *729:11 2.46013e-05
15 *728:11 *729:11 0
16 *728:13 *729:13 0.00577569
17 *728:19 *729:13 0.00364043
18 *728:21 *729:13 0.00666337
*RES
1 *874:gpio_out[31] *729:11 2.13963 
2 *729:11 *729:13 275.751 
3 *729:13 *729:15 0.5 
4 *729:15 *729:17 58.8582 
5 *729:17 gpio_out[31] 19.5156 
*END

*D_NET *730 0.239284
*CONN
*P gpio_out[32] O
*I *874:gpio_out[32] O *D counter_gpio_config_example
*CAP
1 gpio_out[32] 0.00271025
2 *874:gpio_out[32] 0.000133249
3 *730:21 0.0553699
4 *730:19 0.0567016
5 *730:9 0.00848725
6 *730:7 0.00457854
7 gpio_out[32] gpio_vtrip_sel[32] 0
8 *730:7 *820:7 0
9 *730:19 *731:19 8.19515e-05
10 *730:19 *821:13 3.86814e-05
11 gpio_holdover[32] gpio_out[32] 0
12 *459:23 *730:9 0.000491649
13 *459:23 *730:19 0.000583037
14 *469:21 *730:19 0.00284183
15 *469:23 *730:9 0.0211864
16 *552:9 *730:21 0.0629526
17 *567:15 *730:9 0.0106701
18 *690:13 *730:9 0.0039969
19 *690:13 *730:19 0.0082125
20 *713:7 *730:7 0
21 *726:19 *730:19 0.000247938
*RES
1 *874:gpio_out[32] *730:7 3.965 
2 *730:7 *730:9 203.31 
3 *730:9 *730:19 18.3252 
4 *730:19 *730:21 1170.56 
5 *730:21 gpio_out[32] 5.8029 
*END

*D_NET *731 0.261875
*CONN
*P gpio_out[33] O
*I *874:gpio_out[33] O *D counter_gpio_config_example
*CAP
1 gpio_out[33] 0.00243296
2 *874:gpio_out[33] 7.56274e-05
3 *731:21 0.0244699
4 *731:19 0.0242226
5 *731:9 0.00584316
6 *731:7 0.00373309
7 *731:7 *753:11 0
8 *731:19 *777:9 0.00859195
9 *731:21 *734:13 0.0200247
10 *731:21 *777:13 0.027128
11 gpio_analog_sel[33] gpio_out[33] 0
12 gpio_holdover[33] gpio_out[33] 0.00423186
13 *203:17 gpio_out[33] 0
14 *433:16 *731:9 0.000112592
15 *457:11 *731:21 0.00269676
16 *459:23 *731:9 0.0256669
17 *470:11 *731:19 0
18 *471:11 *731:19 0
19 *547:9 *731:21 0.0109261
20 *548:9 *731:21 0.0644711
21 *690:13 *731:9 0.00295526
22 *690:13 *731:19 0.00851492
23 *726:9 *731:9 0.0256656
24 *726:19 *731:19 2.9617e-05
25 *730:19 *731:19 8.19515e-05
*RES
1 *874:gpio_out[33] *731:7 3.2 
2 *731:7 *731:9 236.775 
3 *731:9 *731:19 17.9468 
4 *731:19 *731:21 1011.95 
5 *731:21 gpio_out[33] 7.2488 
*END

*D_NET *732 0.0577949
*CONN
*P gpio_out[34] O
*I *874:gpio_out[34] O *D counter_gpio_config_example
*CAP
1 gpio_out[34] 0.014674
2 *874:gpio_out[34] 0.00365787
3 *732:15 0.0193447
4 *732:5 0.00832856
5 gpio_out[34] gpio_vtrip_sel[34] 0
6 *732:5 *816:5 0
7 *732:15 *816:13 0.00112013
8 *229:13 *732:15 0.00768973
9 *380:17 gpio_out[34] 0
10 *417:15 gpio_out[34] 0.000158577
11 *535:13 gpio_out[34] 0.00147197
12 *562:7 *732:5 0
13 *662:27 *732:15 0.000272471
14 *665:30 *732:15 0.00107686
15 *678:11 *732:15 0
*RES
1 *874:gpio_out[34] *732:5 60.2325 
2 *732:5 *732:15 47.1311 
3 *732:15 gpio_out[34] 31.9004 
*END

*D_NET *733 0.0754476
*CONN
*P gpio_out[35] O
*I *874:gpio_out[35] O *D counter_gpio_config_example
*CAP
1 gpio_out[35] 0.011151
2 *874:gpio_out[35] 0.00390748
3 *733:13 0.0123839
4 *733:11 0.00514032
5 *733:11 *734:11 0.014285
6 *733:11 *735:11 0.0145807
7 *733:11 *779:16 0.00197796
8 *733:11 *816:5 0
9 gpio_analog_sel[35] gpio_out[35] 0
10 gpio_holdover[35] gpio_out[35] 0.000212114
11 *180:9 *733:13 0.00240519
12 *194:9 *733:13 0.0056923
13 *244:9 *733:13 0.00128637
14 *259:29 *733:11 0.00242523
*RES
1 *874:gpio_out[35] *733:11 25.8984 
2 *733:11 *733:13 64.365 
3 *733:13 gpio_out[35] 22.514 
*END

*D_NET *734 0.107151
*CONN
*P gpio_out[36] O
*I *874:gpio_out[36] O *D counter_gpio_config_example
*CAP
1 gpio_out[36] 0.00346432
2 *874:gpio_out[36] 0.00976222
3 *734:13 0.00739349
4 *734:11 0.0136914
5 *734:11 *735:11 0.00192804
6 *734:11 *822:8 0
7 *734:11 *823:6 0
8 *734:13 *777:13 0.0171376
9 gpio_analog_sel[36] gpio_out[36] 0
10 gpio_holdover[36] gpio_out[36] 0.000444805
11 *259:27 *734:11 0.00179818
12 *382:24 gpio_out[36] 2.60489e-05
13 *425:17 *734:11 0.000694094
14 *681:7 *734:11 0
15 *691:9 *734:11 0.0165008
16 *731:21 *734:13 0.0200247
17 *733:11 *734:11 0.014285
*RES
1 *874:gpio_out[36] *734:11 40.9456 
2 *734:11 *734:13 226.545 
3 *734:13 gpio_out[36] 7.58003 
*END

*D_NET *735 0.141075
*CONN
*P gpio_out[37] O
*I *874:gpio_out[37] O *D counter_gpio_config_example
*CAP
1 gpio_out[37] 0.0049841
2 *874:gpio_out[37] 0.000214276
3 *735:13 0.027046
4 *735:11 0.032321
5 *735:7 0.0104734
6 *735:11 *779:16 0.00303257
7 *735:11 *787:11 0.00375547
8 *735:11 *804:9 0.000226671
9 gpio_holdover[37] gpio_out[37] 0.00723782
10 *259:27 *735:11 0.00181566
11 *259:29 *735:11 0.000296581
12 *279:9 *735:13 0
13 *393:9 *735:13 0
14 *425:17 *735:11 0.00122673
15 *562:9 *735:11 0.00109537
16 *568:5 *735:7 0
17 *689:11 *735:11 0.0277079
18 *691:9 *735:11 0.00132353
19 *694:9 *735:11 0.00180922
20 *733:11 *735:11 0.0145807
21 *734:11 *735:11 0.00192804
*RES
1 *874:gpio_out[37] *735:7 3.6125 
2 *735:7 *735:11 48.3167 
3 *735:11 *735:13 391.275 
4 *735:13 gpio_out[37] 14.1198 
*END

*D_NET *736 0.148176
*CONN
*P gpio_out[38] O
*I *874:gpio_out[38] O *D counter_gpio_config_example
*CAP
1 gpio_out[38] 0.0111202
2 *874:gpio_out[38] 4.97249e-05
3 *736:10 0.0612868
4 *736:8 0.0502164
5 gpio_out[38] *784:34 0
6 *736:8 *740:16 8.02886e-05
7 *736:10 *784:32 0
8 *384:21 gpio_out[38] 0
9 *693:9 gpio_out[38] 0
10 *724:13 *736:10 0.0254224
11 *725:13 *736:10 0
*RES
1 *874:gpio_out[38] *736:8 1.1254 
2 *736:8 *736:10 152.236 
3 *736:10 gpio_out[38] 47.6025 
*END

*D_NET *737 0.117259
*CONN
*P gpio_out[39] O
*I *874:gpio_out[39] O *D counter_gpio_config_example
*CAP
1 gpio_out[39] 8.52172e-05
2 *874:gpio_out[39] 0.0036606
3 *737:17 0.00359568
4 *737:15 0.00364927
5 *737:13 0.0020563
6 *737:11 0.00191749
7 *737:9 0.0469354
8 *737:7 0.0469354
9 *737:5 0.0036606
10 *737:5 *794:7 0
11 gpio_holdover[39] *737:17 0
12 *385:13 *737:13 0.0047634
13 *385:13 *737:17 0
14 *697:5 *737:5 0
*RES
1 *874:gpio_out[39] *737:5 60.7425 
2 *737:5 *737:7 0.5 
3 *737:7 *737:9 108.239 
4 *737:9 *737:11 0.5 
5 *737:11 *737:13 54.03 
6 *737:13 *737:15 2.52 
7 *737:15 *737:17 62.1 
8 *737:17 gpio_out[39] 1.5675 
*END

*D_NET *738 0.370395
*CONN
*P gpio_out[3] O
*I *874:gpio_out[3] O *D counter_gpio_config_example
*CAP
1 gpio_out[3] 0.00136649
2 *874:gpio_out[3] 0.00193788
3 *738:25 0.126614
4 *738:23 0.125248
5 *738:21 0.0338013
6 *738:19 0.0338013
7 *738:17 0.0029695
8 *738:15 0.00490738
9 gpio_out[3] *833:13 0
10 *738:15 *765:11 0
11 *738:15 *771:11 0.00690484
12 *738:17 *771:11 0.00147874
13 *738:17 *782:27 0.00364291
14 gpio_analog_sel[3] *738:25 0
15 gpio_dm2[3] *738:25 5.72191e-05
16 gpio_holdover[3] gpio_out[3] 0.000566434
17 gpio_holdover[3] *738:25 0.00462927
18 *874:gpio_in[40] *738:15 6.16289e-05
19 *103:13 *738:21 0
20 *149:13 *738:21 0
21 *187:11 *738:25 0
22 *238:13 *738:21 0.00170945
23 *342:21 *738:17 0
24 *372:13 *738:21 0
25 *470:15 *738:15 0.0069091
26 *479:15 *738:17 0.0109339
27 *540:11 *738:25 0.00285499
*RES
1 *874:gpio_out[3] *738:15 18.5758 
2 *738:15 *738:17 100.845 
3 *738:17 *738:19 2 
4 *738:19 *738:21 593.107 
5 *738:21 *738:23 0.5 
6 *738:23 *738:25 293.236 
7 *738:25 gpio_out[3] 6.0121 
*END

*D_NET *739 0.23752
*CONN
*P gpio_out[40] O
*I *874:gpio_out[40] O *D counter_gpio_config_example
*CAP
1 gpio_out[40] 0.000297428
2 *874:gpio_out[40] 0.00981943
3 *739:9 0.0272534
4 *739:7 0.026956
5 *739:5 0.00981943
6 gpio_out[40] *827:13 0
7 *739:5 *760:15 0
8 *739:9 *828:13 0.0878977
9 *123:21 *739:9 0.0151379
10 *212:13 *739:9 0.0126647
11 *300:21 *739:9 0.0142003
12 *340:17 *739:9 0.0203827
13 *344:35 *739:9 0.0130909
14 *387:13 gpio_out[40] 0
*RES
1 *874:gpio_out[40] *739:5 172.943 
2 *739:5 *739:7 0.5 
3 *739:7 *739:9 135.683 
4 *739:9 gpio_out[40] 5.4275 
*END

*D_NET *740 0.261927
*CONN
*P gpio_out[41] O
*I *874:gpio_out[41] O *D counter_gpio_config_example
*CAP
1 gpio_out[41] 9.09256e-05
2 *874:gpio_out[41] 0.00267199
3 *740:22 0.0535212
4 *740:20 0.0534303
5 *740:18 0.0501112
6 *740:16 0.0527832
7 *740:16 *784:12 7.86633e-05
8 *740:16 *824:8 0.00346689
9 *740:16 *825:8 0.000446475
10 *740:16 *826:12 0.00250876
11 *740:16 *826:14 0.000514022
12 *740:18 *826:14 0.0177362
13 *874:gpio_in[38] *740:18 0.000503144
14 *146:23 *740:18 0
15 *176:13 *740:18 0.0221109
16 *388:25 *740:22 0
17 *410:19 *740:18 0.001328
18 *703:173 *740:16 0.000545062
19 *705:39 *740:18 0
20 *736:8 *740:16 8.02886e-05
*RES
1 *874:gpio_out[41] *740:16 13.5566 
2 *740:16 *740:18 931.95 
3 *740:18 *740:20 2 
4 *740:20 *740:22 924.247 
5 *740:22 gpio_out[41] 1.6725 
*END

*D_NET *741 0.209153
*CONN
*P gpio_out[42] O
*I *874:gpio_out[42] O *D counter_gpio_config_example
*CAP
1 gpio_out[42] 0.00103414
2 *874:gpio_out[42] 0.00422017
3 *741:13 0.00684485
4 *741:11 0.00581071
5 *741:9 0.093397
6 *741:7 0.093397
7 *741:5 0.00422017
8 *741:5 *832:7 0
9 gpio_analog_sel[42] gpio_out[42] 0.000229232
10 *213:21 *741:13 0
11 *258:17 *741:9 0
12 *473:11 *741:9 0
*RES
1 *874:gpio_out[42] *741:5 70.9425 
2 *741:5 *741:7 0.5 
3 *741:7 *741:9 220.169 
4 *741:9 *741:11 0.5 
5 *741:11 *741:13 105.165 
6 *741:13 gpio_out[42] 3.9849 
*END

*D_NET *742 0.433838
*CONN
*P gpio_out[43] O
*I *874:gpio_out[43] O *D counter_gpio_config_example
*CAP
1 gpio_out[43] 0.00115112
2 *874:gpio_out[43] 0.000766153
3 *742:13 0.0371993
4 *742:11 0.0360482
5 *742:9 0.0816724
6 *742:7 0.0824386
7 *742:7 *769:5 0
8 *742:9 *743:17 0
9 *742:9 *783:13 0.0949503
10 *742:9 *829:16 0.0111708
11 *103:17 *742:9 0.00357432
12 *104:27 *742:9 0.00313841
13 *114:19 *742:9 1.57264e-05
14 *117:17 *742:9 0
15 *190:27 *742:9 0.00620958
16 *214:21 *742:13 0
17 *346:21 *742:13 0
18 *381:17 *742:9 0.00766196
19 *404:19 *742:13 0.067841
20 *686:5 *742:7 0
*RES
1 *874:gpio_out[43] *742:7 12.2825 
2 *742:7 *742:9 253.148 
3 *742:9 *742:11 0.5 
4 *742:11 *742:13 932.895 
5 *742:13 gpio_out[43] 7.7533 
*END

*D_NET *743 0.5173
*CONN
*P gpio_out[4] O
*I *874:gpio_out[4] O *D counter_gpio_config_example
*CAP
1 gpio_out[4] 0.000137295
2 *874:gpio_out[4] 9.2103e-05
3 *743:17 0.134345
4 *743:15 0.134208
5 *743:13 0.0575812
6 *743:11 0.0576733
7 *743:13 *806:13 0
8 *743:17 gpio_vtrip_sel[4] 0.00190778
9 *743:17 *781:17 0.0106573
10 *743:17 *783:13 0.00485517
11 *743:17 *829:16 0.00592957
12 gpio_holdover[4] *743:17 0
13 *142:13 *743:17 0
14 *190:29 *743:17 0.00510702
15 *215:33 *743:17 0.0001465
16 *233:21 *743:17 0.00930423
17 *235:19 *743:17 0.0257128
18 *271:21 *743:17 0.0656392
19 *367:27 *743:17 0.000867377
20 *542:21 *743:17 0.00257627
21 *544:17 *743:17 0.000534828
22 *690:13 *743:11 2.46013e-05
23 *718:7 *743:11 0
24 *742:9 *743:17 0
*RES
1 *874:gpio_out[4] *743:11 2.13963 
2 *743:11 *743:13 129.238 
3 *743:13 *743:15 0.5 
4 *743:15 *743:17 338.605 
5 *743:17 gpio_out[4] 0.394567 
*END

*D_NET *744 0.726759
*CONN
*P gpio_out[5] O
*I *874:gpio_out[5] O *D counter_gpio_config_example
*CAP
1 gpio_out[5] 0.0023884
2 *874:gpio_out[5] 0.00109815
3 *744:13 0.0381061
4 *744:11 0.0357177
5 *744:9 0.0437193
6 *744:7 0.0448175
7 *744:7 *831:7 0
8 *744:7 *835:11 0
9 *744:9 *756:9 0.000133674
10 *744:9 *831:9 0.222143
11 *744:9 *833:9 0.224718
12 gpio_dm2[5] gpio_out[5] 0
13 gpio_holdover[5] gpio_out[5] 0.000265664
14 *482:11 *744:13 0.0809209
15 *711:19 *744:9 0.0322689
16 *714:19 *744:9 0.000462659
*RES
1 *874:gpio_out[5] *744:7 17.3825 
2 *744:7 *744:9 338.8 
3 *744:9 *744:11 0.5 
4 *744:11 *744:13 946.155 
5 *744:13 gpio_out[5] 5.44443 
*END

*D_NET *745 0.426178
*CONN
*P gpio_out[6] O
*I *874:gpio_out[6] O *D counter_gpio_config_example
*CAP
1 gpio_out[6] 0.00255993
2 *874:gpio_out[6] 0.0196213
3 *745:9 0.0889691
4 *745:7 0.0864092
5 *745:5 0.0196213
6 *745:5 *808:5 0
7 *393:13 gpio_out[6] 0.000797845
8 *393:13 *745:9 0.208199
9 *682:5 *745:5 0
*RES
1 *874:gpio_out[6] *745:5 347.872 
2 *745:5 *745:7 0.5 
3 *745:7 *745:9 314.649 
4 *745:9 gpio_out[6] 5.7665 
*END

*D_NET *746 0.400681
*CONN
*P gpio_out[7] O
*I *874:gpio_out[7] O *D counter_gpio_config_example
*CAP
1 gpio_out[7] 0.00984291
2 *874:gpio_out[7] 0.0162512
3 *746:13 0.0498024
4 *746:11 0.0399595
5 *746:9 0.123532
6 *746:7 0.123532
7 *746:5 0.0162512
8 *746:5 *774:5 0
9 gpio_holdover[7] gpio_out[7] 0
10 *138:13 *746:13 0.0141272
11 *394:17 gpio_out[7] 0
12 *438:13 gpio_out[7] 0
13 *447:9 *746:13 0
14 *467:15 *746:9 0.00738121
*RES
1 *874:gpio_out[7] *746:5 287.693 
2 *746:5 *746:7 0.5 
3 *746:7 *746:9 299.703 
4 *746:9 *746:11 0.5 
5 *746:11 *746:13 727.365 
6 *746:13 gpio_out[7] 21.9618 
*END

*D_NET *747 0.581071
*CONN
*P gpio_out[8] O
*I *874:gpio_out[8] O *D counter_gpio_config_example
*CAP
1 gpio_out[8] 0.00136539
2 *874:gpio_out[8] 0.0653555
3 *747:9 0.095191
4 *747:7 0.0938256
5 *747:5 0.0653555
6 *747:5 *769:5 0
7 *747:5 *800:13 0.020699
8 gpio_dm2[8] gpio_out[8] 6.17086e-06
9 gpio_dm2[8] *747:9 0.0082309
10 gpio_holdover[8] gpio_out[8] 0.000668063
11 *395:13 *747:9 0.230053
12 *542:19 *747:5 0.000320884
13 *694:7 *747:5 0
14 *722:13 *747:5 0
*RES
1 *874:gpio_out[8] *747:5 1181.21 
2 *747:5 *747:7 0.5 
3 *747:7 *747:9 347.773 
4 *747:9 gpio_out[8] 6.5297 
*END

*D_NET *748 0.469748
*CONN
*P gpio_out[9] O
*I *874:gpio_out[9] O *D counter_gpio_config_example
*CAP
1 gpio_out[9] 0.000106741
2 *874:gpio_out[9] 0.00729388
3 *748:17 0.015371
4 *748:15 0.0152643
5 *748:13 0.0677112
6 *748:11 0.0677112
7 *748:9 0.128035
8 *748:7 0.128035
9 *748:5 0.00729388
10 *748:5 *772:5 0
11 *748:17 *836:17 0
12 gpio_holdover[9] *748:17 0.0329269
13 *292:17 *748:9 0
*RES
1 *874:gpio_out[9] *748:5 121.942 
2 *748:5 *748:7 0.5 
3 *748:7 *748:9 292.012 
4 *748:9 *748:11 0.5 
5 *748:11 *748:13 1230.22 
6 *748:13 *748:15 0.5 
7 *748:15 *748:17 51.0885 
8 *748:17 gpio_out[9] 0.281833 
*END

*D_NET *749 0.400267
*CONN
*P gpio_slow_sel[0] O
*I *874:gpio_slow_sel[0] O *D counter_gpio_config_example
*CAP
1 gpio_slow_sel[0] 2.42267e-05
2 *874:gpio_slow_sel[0] 0.00480147
3 *749:29 0.124525
4 *749:27 0.124501
5 *749:25 0.0307014
6 *749:23 0.0320878
7 *749:19 0.0061879
8 *749:19 *787:11 0.0129141
9 *749:19 *796:11 0
10 *749:19 *804:9 0.00263111
11 *749:23 *793:11 0.0046847
12 *128:17 *749:25 0.00191058
13 *146:23 *749:23 0.000132437
14 *146:27 *749:19 0.00149745
15 *169:13 *749:25 0.0328632
16 *214:13 *749:25 0.000259275
17 *238:27 *749:19 4.32417e-05
18 *239:13 *749:25 0
19 *240:19 *749:19 0.00267546
20 *243:15 *749:25 0.000697326
21 *281:13 *749:25 0
22 *346:15 *749:25 0.00366546
23 *357:21 *749:25 0
24 *419:15 *749:25 0.00243031
25 *425:17 *749:19 0.00421339
26 *441:7 *749:29 0
27 *562:9 *749:19 0.00290385
28 *661:15 *749:19 0.000126805
29 *674:13 *749:25 0
30 *703:177 *749:19 0.00014692
31 *705:39 *749:19 0.00140247
32 *705:39 *749:23 0.00224065
*RES
1 *874:gpio_slow_sel[0] *749:19 30.9232 
2 *749:19 *749:23 45.92 
3 *749:23 *749:25 699.953 
4 *749:25 *749:27 0.5 
5 *749:27 *749:29 293.186 
6 *749:29 gpio_slow_sel[0] 0.0639667 
*END

*D_NET *750 0.499544
*CONN
*P gpio_slow_sel[10] O
*I *874:gpio_slow_sel[10] O *D counter_gpio_config_example
*CAP
1 gpio_slow_sel[10] 0.000149196
2 *874:gpio_slow_sel[10] 0.00280259
3 *750:17 0.139944
4 *750:15 0.139795
5 *750:13 0.0574072
6 *750:11 0.0602098
7 *750:11 *751:11 0
8 *750:11 *797:5 0
9 *750:13 *795:5 0.054844
10 *750:13 *802:5 0
11 *750:13 *805:21 0.0431868
12 *266:21 *750:17 0
13 *360:13 *750:11 0.000385535
14 *543:19 *750:11 0.000819393
*RES
1 *874:gpio_slow_sel[10] *750:11 30.5965 
2 *750:11 *750:13 1460.23 
3 *750:13 *750:15 0.5 
4 *750:15 *750:17 334.264 
5 *750:17 gpio_slow_sel[10] 0.428767 
*END

*D_NET *751 0.497762
*CONN
*P gpio_slow_sel[11] O
*I *874:gpio_slow_sel[11] O *D counter_gpio_config_example
*CAP
1 gpio_slow_sel[11] 5.57555e-05
2 *874:gpio_slow_sel[11] 0.00224125
3 *751:17 0.140201
4 *751:15 0.140145
5 *751:13 0.0623559
6 *751:11 0.0645972
7 *751:13 *775:5 0
8 *751:13 *792:13 0.00694171
9 *290:17 *751:11 0.000218975
10 *553:18 *751:11 0.000328184
11 *677:5 *751:11 0
12 *719:5 *751:13 0.0806762
13 *750:11 *751:11 0
*RES
1 *874:gpio_slow_sel[11] *751:11 24.1564 
2 *751:11 *751:13 1635.68 
3 *751:13 *751:15 0.5 
4 *751:15 *751:17 336.012 
5 *751:17 gpio_slow_sel[11] 0.160233 
*END

*D_NET *752 0.483107
*CONN
*P gpio_slow_sel[12] O
*I *874:gpio_slow_sel[12] O *D counter_gpio_config_example
*CAP
1 gpio_slow_sel[12] 0.000252581
2 *874:gpio_slow_sel[12] 0.0159218
3 *752:17 0.0227954
4 *752:15 0.0225428
5 *752:13 0.0850783
6 *752:11 0.0850783
7 *752:9 0.11401
8 *752:7 0.11401
9 *752:5 0.0159218
10 *752:5 *818:5 0
11 *444:7 *752:17 0
12 *555:17 *752:9 0.00749518
13 *699:7 *752:5 0
*RES
1 *874:gpio_slow_sel[12] *752:5 276.983 
2 *752:5 *752:7 0.5 
3 *752:7 *752:9 280.126 
4 *752:9 *752:11 0.5 
5 *752:11 *752:13 1545.41 
6 *752:13 *752:15 0.5 
7 *752:15 *752:17 51.9625 
8 *752:17 gpio_slow_sel[12] 0.6669 
*END

*D_NET *753 0.657805
*CONN
*P gpio_slow_sel[13] O
*I *874:gpio_slow_sel[13] O *D counter_gpio_config_example
*CAP
1 gpio_slow_sel[13] 0.0201476
2 *874:gpio_slow_sel[13] 0.000177941
3 *753:21 0.113111
4 *753:19 0.0929638
5 *753:17 0.12379
6 *753:15 0.12379
7 *753:13 0.0898655
8 *753:11 0.0900435
9 *753:17 *754:17 0
10 gpio_dm0[22] *753:13 0.00371896
11 *269:17 gpio_slow_sel[13] 0
12 *445:5 gpio_slow_sel[13] 0
13 *445:7 gpio_slow_sel[13] 0
14 *678:5 *753:13 0.000132553
15 *690:13 *753:11 6.31958e-05
16 *695:10 *753:13 0
17 *697:5 *753:11 0
18 *729:13 *753:13 0
19 *731:7 *753:11 0
*RES
1 *874:gpio_slow_sel[13] *753:11 2.25617 
2 *753:11 *753:13 205.897 
3 *753:13 *753:15 0.5 
4 *753:15 *753:17 296.353 
5 *753:17 *753:19 0.5 
6 *753:19 *753:21 1690.24 
7 *753:21 gpio_slow_sel[13] 45.7827 
*END

*D_NET *754 0.685631
*CONN
*P gpio_slow_sel[14] O
*I *874:gpio_slow_sel[14] O *D counter_gpio_config_example
*CAP
1 gpio_slow_sel[14] 1.5206e-05
2 *874:gpio_slow_sel[14] 8.83673e-05
3 *754:25 0.0945939
4 *754:23 0.0945787
5 *754:21 0.111668
6 *754:19 0.111668
7 *754:17 0.0428137
8 *754:15 0.0428137
9 *754:13 0.0602719
10 *754:11 0.0603603
11 *754:11 *801:11 0
12 *754:11 *810:11 0
13 *754:13 *791:13 0.00613466
14 *754:13 *801:13 0.012982
15 *754:13 *810:13 0.0409909
16 *270:17 *754:25 0
17 *466:7 *754:17 0.000731642
18 *676:5 *754:13 0.00589572
19 *683:11 *754:11 2.46013e-05
20 *753:17 *754:17 0
*RES
1 *874:gpio_slow_sel[14] *754:11 2.13963 
2 *754:11 *754:13 205.035 
3 *754:13 *754:15 0.5 
4 *754:15 *754:17 101.568 
5 *754:17 *754:19 0.5 
6 *754:19 *754:21 2031.44 
7 *754:21 *754:23 0.5 
8 *754:23 *754:25 227.636 
9 *754:25 gpio_slow_sel[14] 0.0437 
*END

*D_NET *755 0.72994
*CONN
*P gpio_slow_sel[15] O
*I *874:gpio_slow_sel[15] O *D counter_gpio_config_example
*CAP
1 gpio_slow_sel[15] 7.20231e-05
2 *874:gpio_slow_sel[15] 0.000105122
3 *755:21 0.0102067
4 *755:19 0.0101346
5 *755:17 0.133633
6 *755:15 0.133633
7 *755:13 0.174936
8 *755:11 0.175041
9 *755:11 *807:11 0
10 *755:11 *817:11 0
11 *755:13 *807:13 0.035019
12 *755:13 *817:13 0.0170204
13 *755:13 *817:19 0.0054471
14 *755:13 *817:21 0.0346682
15 *690:13 *755:11 2.46013e-05
*RES
1 *874:gpio_slow_sel[15] *755:11 2.13963 
2 *755:11 *755:13 544.142 
3 *755:13 *755:15 0.5 
4 *755:15 *755:17 322.573 
5 *755:17 *755:19 0.5 
6 *755:19 *755:21 176.565 
7 *755:21 gpio_slow_sel[15] 1.35 
*END

*D_NET *756 0.770233
*CONN
*P gpio_slow_sel[16] O
*I *874:gpio_slow_sel[16] O *D counter_gpio_config_example
*CAP
1 gpio_slow_sel[16] 0.188367
2 *874:gpio_slow_sel[16] 0.0011327
3 *756:11 0.188367
4 *756:9 0.04231
5 *756:7 0.0434427
6 *756:7 *777:7 0
7 *756:9 *831:9 0.169543
8 *756:9 *833:9 0.000238647
9 *389:13 *756:9 0.0469966
10 *711:19 *756:9 0.0305415
11 *714:19 *756:9 0.0003118
12 *715:9 *756:9 0.0588475
13 *744:9 *756:9 0.000133674
*RES
1 *874:gpio_slow_sel[16] *756:7 18.4025 
2 *756:7 *756:9 256.877 
3 *756:9 *756:11 0.5 
4 *756:11 gpio_slow_sel[16] 3416.03 
*END

*D_NET *757 0.540674
*CONN
*P gpio_slow_sel[17] O
*I *874:gpio_slow_sel[17] O *D counter_gpio_config_example
*CAP
1 gpio_slow_sel[17] 0.0137924
2 *874:gpio_slow_sel[17] 0.133082
3 *757:11 0.0137924
4 *757:9 0.0868826
5 *757:7 0.0868826
6 *757:5 0.133082
7 *757:5 *810:13 0.0342914
8 *757:9 *758:9 0
9 *673:13 *757:5 0.0388698
10 *676:5 *757:5 0
11 *687:13 *757:5 0
12 *705:39 *757:5 0
*RES
1 *874:gpio_slow_sel[17] *757:5 2409.29 
2 *757:5 *757:7 0.5 
3 *757:7 *757:9 209.623 
4 *757:9 *757:11 0.5 
5 *757:11 gpio_slow_sel[17] 239.753 
*END

*D_NET *758 0.440403
*CONN
*P gpio_slow_sel[18] O
*I *874:gpio_slow_sel[18] O *D counter_gpio_config_example
*CAP
1 gpio_slow_sel[18] 0.0135441
2 *874:gpio_slow_sel[18] 0.132699
3 *758:11 0.0135441
4 *758:9 0.073958
5 *758:7 0.073958
6 *758:5 0.132699
7 *758:5 *773:13 0
8 *758:5 *781:15 0
9 *679:5 *758:5 0
10 *757:9 *758:9 0
*RES
1 *874:gpio_slow_sel[18] *758:5 2404.19 
2 *758:5 *758:7 0.5 
3 *758:7 *758:9 177.751 
4 *758:9 *758:11 0.5 
5 *758:11 gpio_slow_sel[18] 244.852 
*END

*D_NET *759 0.377335
*CONN
*P gpio_slow_sel[19] O
*I *874:gpio_slow_sel[19] O *D counter_gpio_config_example
*CAP
1 gpio_slow_sel[19] 0.00879145
2 *874:gpio_slow_sel[19] 0.143489
3 *759:11 0.00879145
4 *759:9 0.0363868
5 *759:7 0.0363868
6 *759:5 0.143489
7 *270:17 *759:9 0
8 *680:5 *759:5 0
*RES
1 *874:gpio_slow_sel[19] *759:5 2497.01 
2 *759:5 *759:7 0.5 
3 *759:7 *759:9 87.1467 
4 *759:9 *759:11 0.5 
5 *759:11 gpio_slow_sel[19] 152.033 
*END

*D_NET *760 0.355301
*CONN
*P gpio_slow_sel[1] O
*I *874:gpio_slow_sel[1] O *D counter_gpio_config_example
*CAP
1 gpio_slow_sel[1] 0.000212664
2 *874:gpio_slow_sel[1] 0.00660681
3 *760:21 0.12453
4 *760:19 0.124317
5 *760:17 0.00384936
6 *760:15 0.0104562
7 *760:15 *771:11 0.020728
8 *760:15 *782:15 0.00228304
9 *760:15 *782:17 0.00392719
10 *760:15 *815:15 0.018289
11 *874:gpio_in[2] *760:15 3.92474e-05
12 *343:13 *760:17 0.0194587
13 *452:7 *760:21 0
14 *452:11 *760:17 0.0109709
15 *683:11 *760:15 0.000104319
16 *690:11 *760:15 0.00211819
17 *727:19 *760:15 0.00250954
18 *727:21 *760:15 0.00490087
19 *739:5 *760:15 0
*RES
1 *874:gpio_slow_sel[1] *760:15 40.6566 
2 *760:15 *760:17 219.915 
3 *760:17 *760:19 0.5 
4 *760:19 *760:21 299.071 
5 *760:21 gpio_slow_sel[1] 0.611167 
*END

*D_NET *761 0.494211
*CONN
*P gpio_slow_sel[20] O
*I *874:gpio_slow_sel[20] O *D counter_gpio_config_example
*CAP
1 gpio_slow_sel[20] 7.79348e-05
2 *874:gpio_slow_sel[20] 0.0001347
3 *761:21 0.11421
4 *761:19 0.114132
5 *761:17 0.0345627
6 *761:15 0.0345627
7 *761:13 0.0644754
8 *761:11 0.0646101
9 *761:11 *762:11 0
10 *761:11 *800:11 0
11 *761:13 *762:13 0.0141753
12 *761:13 *800:13 0.0447291
13 *442:11 *761:21 0
14 *690:13 *761:11 4.59533e-05
15 *722:13 *761:13 0.00849544
*RES
1 *874:gpio_slow_sel[20] *761:11 2.1979 
2 *761:11 *761:13 223.382 
3 *761:13 *761:15 0.5 
4 *761:15 *761:17 77.2122 
5 *761:17 *761:19 0.5 
6 *761:19 *761:21 2075.8 
7 *761:21 gpio_slow_sel[20] 1.35 
*END

*D_NET *762 0.606507
*CONN
*P gpio_slow_sel[21] O
*I *874:gpio_slow_sel[21] O *D counter_gpio_config_example
*CAP
1 gpio_slow_sel[21] 7.849e-05
2 *874:gpio_slow_sel[21] 0.000104687
3 *762:21 0.0049449
4 *762:19 0.0236579
5 *762:13 0.24301
6 *762:11 0.224324
7 *762:13 *800:13 0
8 *122:193 *762:13 0.000801986
9 *368:61 *762:19 0
10 *690:13 *762:11 2.46013e-05
11 *709:5 *762:13 0.0784962
12 *722:13 *762:13 0.0168889
13 *761:11 *762:11 0
14 *761:13 *762:13 0.0141753
*RES
1 *874:gpio_slow_sel[21] *762:11 2.13963 
2 *762:11 *762:13 559.819 
3 *762:13 *762:19 46.1655 
4 *762:19 *762:21 83.745 
5 *762:21 gpio_slow_sel[21] 1.35 
*END

*D_NET *763 0.312474
*CONN
*P gpio_slow_sel[22] O
*I *874:gpio_slow_sel[22] O *D counter_gpio_config_example
*CAP
1 gpio_slow_sel[22] 0.139521
2 *874:gpio_slow_sel[22] 0.00548449
3 *763:11 0.143603
4 *763:5 0.00956743
5 *763:5 *770:7 0
6 *763:5 *781:15 0
7 *763:11 *803:9 0.00626355
8 *763:11 *814:19 0.00165859
9 *535:13 *763:11 0
10 *677:5 gpio_slow_sel[22] 0.00637574
11 *709:5 *763:5 0
*RES
1 *874:gpio_slow_sel[22] *763:5 91.3425 
2 *763:5 *763:11 14.0315 
3 *763:11 gpio_slow_sel[22] 2557.7 
*END

*D_NET *764 0.312769
*CONN
*P gpio_slow_sel[23] O
*I *874:gpio_slow_sel[23] O *D counter_gpio_config_example
*CAP
1 gpio_slow_sel[23] 0.00207801
2 *874:gpio_slow_sel[23] 0.0658278
3 *764:13 0.0806041
4 *764:11 0.0884787
5 *764:5 0.0757804
6 *439:13 *764:11 0
7 *684:5 *764:5 0
8 *716:17 *764:5 0
*RES
1 *874:gpio_slow_sel[23] *764:5 1187.84 
2 *764:5 *764:11 24.6943 
3 *764:11 *764:13 1426.11 
4 *764:13 gpio_slow_sel[23] 36.0975 
*END

*D_NET *765 0.574768
*CONN
*P gpio_slow_sel[24] O
*I *874:gpio_slow_sel[24] O *D counter_gpio_config_example
*CAP
1 gpio_slow_sel[24] 0.00337945
2 *874:gpio_slow_sel[24] 0.000109142
3 *765:21 0.0382286
4 *765:19 0.0348491
5 *765:17 0.0301799
6 *765:15 0.0301799
7 *765:13 0.13203
8 *765:11 0.132139
9 *765:13 *766:5 0.034204
10 *765:13 *784:12 0.00888251
11 *765:13 *784:14 0.0281204
12 *765:13 *784:28 0.0187724
13 *281:25 gpio_slow_sel[24] 0
14 *457:9 gpio_slow_sel[24] 0
15 *457:11 *765:21 0.0423122
16 *466:11 *765:13 0.00547313
17 *547:9 *765:21 0.0110043
18 *683:11 *765:11 4.59533e-05
19 *719:11 *765:17 0
20 *724:11 *765:11 0
21 *724:13 *765:13 0.0248579
22 *738:15 *765:11 0
*RES
1 *874:gpio_slow_sel[24] *765:11 2.1979 
2 *765:11 *765:13 396.424 
3 *765:13 *765:15 0.5 
4 *765:15 *765:17 70.6863 
5 *765:17 *765:19 0.5 
6 *765:19 *765:21 945.645 
7 *765:21 gpio_slow_sel[24] 7.46223 
*END

*D_NET *766 0.317288
*CONN
*P gpio_slow_sel[25] O
*I *874:gpio_slow_sel[25] O *D counter_gpio_config_example
*CAP
1 gpio_slow_sel[25] 0.00238585
2 *874:gpio_slow_sel[25] 0.0987571
3 *766:9 0.0331914
4 *766:7 0.0308055
5 *766:5 0.0987571
6 *282:33 *766:9 0
7 *458:9 gpio_slow_sel[25] 0
8 *466:11 *766:5 0.0191873
9 *723:5 *766:5 0
10 *765:13 *766:5 0.034204
*RES
1 *874:gpio_slow_sel[25] *766:5 1904.9 
2 *766:5 *766:7 0.5 
3 *766:7 *766:9 72.9005 
4 *766:9 gpio_slow_sel[25] 4.82537 
*END

*D_NET *767 0.301224
*CONN
*P gpio_slow_sel[26] O
*I *874:gpio_slow_sel[26] O *D counter_gpio_config_example
*CAP
1 gpio_slow_sel[26] 2.93102e-05
2 *874:gpio_slow_sel[26] 0.0732388
3 *767:17 0.030395
4 *767:15 0.0303657
5 *767:13 0.0233461
6 *767:11 0.0258357
7 *767:5 0.0757284
8 *767:5 *836:13 0.028593
9 *459:9 *767:17 0
10 *672:11 *767:5 0
11 *706:13 *767:13 0.00724836
12 *725:13 *767:5 0.00644395
*RES
1 *874:gpio_slow_sel[26] *767:5 1322.48 
2 *767:5 *767:11 6.68987 
3 *767:11 *767:13 422.385 
4 *767:13 *767:15 0.5 
5 *767:15 *767:17 70.376 
6 *767:17 gpio_slow_sel[26] 0.0842333 
*END

*D_NET *768 0.263463
*CONN
*P gpio_slow_sel[27] O
*I *874:gpio_slow_sel[27] O *D counter_gpio_config_example
*CAP
1 gpio_slow_sel[27] 0.00344005
2 *874:gpio_slow_sel[27] 0.0834611
3 *768:13 0.00608225
4 *768:11 0.00264219
5 *768:9 0.0214233
6 *768:7 0.0214233
7 *768:5 0.0834611
8 *768:5 *791:5 0
9 *768:5 *807:13 0.035865
10 gpio_holdover[22] *768:5 0
11 *178:21 *768:9 0
12 *547:9 *768:13 0.00106741
13 *548:9 *768:13 0.00459693
14 *685:5 *768:5 0
*RES
1 *874:gpio_slow_sel[27] *768:5 1508.63 
2 *768:5 *768:7 0.5 
3 *768:7 *768:9 49.7395 
4 *768:9 *768:11 0.5 
5 *768:11 *768:13 73.035 
6 *768:13 gpio_slow_sel[27] 7.5357 
*END

*D_NET *769 0.226801
*CONN
*P gpio_slow_sel[28] O
*I *874:gpio_slow_sel[28] O *D counter_gpio_config_example
*CAP
1 gpio_slow_sel[28] 0.00235119
2 *874:gpio_slow_sel[28] 0.0785531
3 *769:11 0.0226956
4 *769:5 0.0988975
5 *769:5 *798:13 0.00891659
6 *769:5 *800:13 0.0153865
7 *461:9 gpio_slow_sel[28] 0
8 *461:9 *769:11 0
9 *542:19 *769:5 0
10 *742:7 *769:5 0
11 *747:5 *769:5 0
*RES
1 *874:gpio_slow_sel[28] *769:5 1418.87 
2 *769:5 *769:11 47.4211 
3 *769:11 gpio_slow_sel[28] 4.7063 
*END

*D_NET *770 0.223668
*CONN
*P gpio_slow_sel[29] O
*I *874:gpio_slow_sel[29] O *D counter_gpio_config_example
*CAP
1 gpio_slow_sel[29] 0.0189664
2 *874:gpio_slow_sel[29] 0.00268801
3 *770:13 0.0858944
4 *770:11 0.0693071
5 *770:7 0.00506716
6 *770:7 *781:15 0.000223361
7 *770:7 *783:11 0
8 *233:19 *770:7 0.000103421
9 *406:13 *770:11 0.00559825
10 *537:13 *770:11 0
11 *545:26 *770:13 0.0358194
12 *763:5 *770:7 0
*RES
1 *874:gpio_slow_sel[29] *770:7 45.9425 
2 *770:7 *770:11 8.98667 
3 *770:11 *770:13 1212.89 
4 *770:13 gpio_slow_sel[29] 41.3354 
*END

*D_NET *771 0.392248
*CONN
*P gpio_slow_sel[2] O
*I *874:gpio_slow_sel[2] O *D counter_gpio_config_example
*CAP
1 gpio_slow_sel[2] 9.71465e-05
2 *874:gpio_slow_sel[2] 0.00622331
3 *771:21 0.127014
4 *771:19 0.129329
5 *771:13 0.0106556
6 *771:11 0.0144672
7 *771:11 *782:15 0.000142595
8 *874:gpio_in[2] *771:11 0.00595385
9 *874:gpio_in[3] *771:11 0.000704794
10 *287:17 *771:21 0
11 *343:13 *771:13 0.0245896
12 *345:9 *771:21 0
13 *355:11 *771:19 0
14 *355:11 *771:21 0
15 *370:11 *771:19 7.02834e-05
16 *400:11 *771:19 0
17 *400:11 *771:21 0.00140133
18 *470:15 *771:11 0.0032222
19 *479:15 *771:11 0.00161011
20 *533:11 *771:19 0.00273515
21 *546:13 *771:13 0
22 *549:13 *771:13 0
23 *670:9 *771:11 0.000458004
24 *683:11 *771:11 0
25 *690:11 *771:11 0
26 *727:25 *771:13 0.0344626
27 *738:15 *771:11 0.00690484
28 *738:17 *771:11 0.00147874
29 *760:15 *771:11 0.020728
*RES
1 *874:gpio_slow_sel[2] *771:11 36.7072 
2 *771:11 *771:13 391.785 
3 *771:13 *771:19 7.1006 
4 *771:19 *771:21 292.749 
5 *771:21 gpio_slow_sel[2] 0.2565 
*END

*D_NET *772 0.193822
*CONN
*P gpio_slow_sel[30] O
*I *874:gpio_slow_sel[30] O *D counter_gpio_config_example
*CAP
1 gpio_slow_sel[30] 0.00236932
2 *874:gpio_slow_sel[30] 0.00308601
3 *772:19 0.0236562
4 *772:13 0.0716904
5 *772:11 0.0525123
6 *772:5 0.00519486
7 *772:5 *811:5 0
8 *772:13 *814:13 0.000137349
9 gpio_dm1[30] *772:19 0
10 *407:13 *772:11 0
11 *537:13 *772:11 0.00414505
12 *686:5 *772:13 0.0310304
13 *748:5 *772:5 0
*RES
1 *874:gpio_slow_sel[30] *772:5 50.0325 
2 *772:5 *772:11 7.5056 
3 *772:11 *772:13 1042.55 
4 *772:13 *772:19 48.7258 
5 *772:19 gpio_slow_sel[30] 4.68097 
*END

*D_NET *773 0.168433
*CONN
*P gpio_slow_sel[31] O
*I *874:gpio_slow_sel[31] O *D counter_gpio_config_example
*CAP
1 gpio_slow_sel[31] 0.0220797
2 *874:gpio_slow_sel[31] 0.0059865
3 *773:13 0.0531188
4 *773:11 0.0340495
5 *773:5 0.00899694
6 gpio_dm1[31] gpio_slow_sel[31] 0
7 gpio_ib_mode_sel[22] *773:5 0
8 *139:13 *773:11 0
9 *380:17 *773:11 0.0014655
10 *465:9 gpio_slow_sel[31] 0
11 *679:5 *773:13 0.0427363
12 *708:5 *773:5 0
13 *758:5 *773:13 0
*RES
1 *874:gpio_slow_sel[31] *773:5 101.033 
2 *773:5 *773:11 9.0788 
3 *773:11 *773:13 831.405 
4 *773:13 gpio_slow_sel[31] 47.8486 
*END

*D_NET *774 0.12336
*CONN
*P gpio_slow_sel[32] O
*I *874:gpio_slow_sel[32] O *D counter_gpio_config_example
*CAP
1 gpio_slow_sel[32] 4.51774e-05
2 *874:gpio_slow_sel[32] 0.0256174
3 *774:9 0.0360625
4 *774:7 0.0360174
5 *774:5 0.0256174
6 *774:5 *796:13 0
7 *466:7 *774:9 0
8 *682:5 *774:5 0
9 *746:5 *774:5 0
*RES
1 *874:gpio_slow_sel[32] *774:5 455.992 
2 *774:5 *774:7 0.5 
3 *774:7 *774:9 80.5144 
4 *774:9 gpio_slow_sel[32] 0.129833 
*END

*D_NET *775 0.0956825
*CONN
*P gpio_slow_sel[33] O
*I *874:gpio_slow_sel[33] O *D counter_gpio_config_example
*CAP
1 gpio_slow_sel[33] 0.00771148
2 *874:gpio_slow_sel[33] 0.0159071
3 *775:9 0.0296506
4 *775:7 0.0219391
5 *775:5 0.0159071
6 *775:5 *792:13 0.0019707
7 *775:5 *809:13 0
8 gpio_analog_en[33] *775:9 0.000820557
9 gpio_dm0[33] *775:9 0.000175807
10 gpio_dm1[33] gpio_slow_sel[33] 0
11 *272:9 gpio_slow_sel[33] 0.000780732
12 *467:15 gpio_slow_sel[33] 0.000819406
13 *719:5 *775:5 0
14 *751:13 *775:5 0
*RES
1 *874:gpio_slow_sel[33] *775:5 282.082 
2 *775:5 *775:7 0.5 
3 *775:7 *775:9 50.5552 
4 *775:9 gpio_slow_sel[33] 25.4342 
*END

*D_NET *776 0.0600218
*CONN
*P gpio_slow_sel[34] O
*I *874:gpio_slow_sel[34] O *D counter_gpio_config_example
*CAP
1 gpio_slow_sel[34] 0.0213436
2 *874:gpio_slow_sel[34] 0.00647355
3 *776:5 0.0278171
4 *776:5 *789:5 0
5 *292:17 gpio_slow_sel[34] 0
6 *468:13 gpio_slow_sel[34] 0
7 *468:17 gpio_slow_sel[34] 6.18537e-05
8 *667:5 *776:5 0
9 *721:13 *776:5 0.00432579
*RES
1 *874:gpio_slow_sel[34] *776:5 130.102 
2 *776:5 gpio_slow_sel[34] 46.8708 
*END

*D_NET *777 0.183066
*CONN
*P gpio_slow_sel[35] O
*I *874:gpio_slow_sel[35] O *D counter_gpio_config_example
*CAP
1 gpio_slow_sel[35] 0.00365137
2 *874:gpio_slow_sel[35] 0.000205269
3 *777:13 0.0209587
4 *777:11 0.0173074
5 *777:9 0.00881752
6 *777:7 0.00902278
7 *777:7 *807:11 0
8 *777:9 *820:11 0.0302967
9 *458:11 *777:13 0
10 *470:15 *777:9 0.000501541
11 *662:25 *777:9 0.000542767
12 *690:13 *777:9 0.0123444
13 *690:17 *777:13 0.026347
14 *726:19 *777:9 0.000212994
15 *731:19 *777:9 0.00859195
16 *731:21 *777:13 0.027128
17 *734:13 *777:13 0.0171376
18 *756:7 *777:7 0
*RES
1 *874:gpio_slow_sel[35] *777:7 3.6125 
2 *777:7 *777:9 49.6229 
3 *777:9 *777:11 0.5 
4 *777:11 *777:13 721.755 
5 *777:13 gpio_slow_sel[35] 7.58637 
*END

*D_NET *778 0.155292
*CONN
*P gpio_slow_sel[36] O
*I *874:gpio_slow_sel[36] O *D counter_gpio_config_example
*CAP
1 gpio_slow_sel[36] 0.0109485
2 *874:gpio_slow_sel[36] 0.0042362
3 *778:13 0.0290588
4 *778:11 0.0223465
5 *778:11 *786:7 0
6 *778:11 *820:11 0.0170286
7 gpio_dm1[36] gpio_slow_sel[36] 0.000671373
8 *93:15 *778:13 0.000602243
9 *99:9 *778:13 0
10 *105:9 *778:13 0.00460343
11 *122:17 *778:13 0.0209567
12 *125:9 *778:13 0
13 *133:9 *778:13 0.00168483
14 *194:9 *778:13 0.00406337
15 *244:9 *778:13 0.00277715
16 *369:9 *778:13 0.0167938
17 *424:35 gpio_slow_sel[36] 4.15225e-05
18 *426:9 *778:13 0.00244546
19 *431:9 *778:13 0
20 *469:21 *778:13 0
21 *470:15 *778:11 0.017033
22 *693:5 *778:11 0
*RES
1 *874:gpio_slow_sel[36] *778:11 31.507 
2 *778:11 *778:13 557.535 
3 *778:13 gpio_slow_sel[36] 22.8928 
*END

*D_NET *779 0.211752
*CONN
*P gpio_slow_sel[37] O
*I *874:gpio_slow_sel[37] O *D counter_gpio_config_example
*CAP
1 gpio_slow_sel[37] 0.00698197
2 *874:gpio_slow_sel[37] 0.0374994
3 *779:18 0.018046
4 *779:16 0.0485635
5 *779:16 *787:11 0.000577784
6 *779:16 *824:8 0.000297967
7 *779:16 *829:16 0.00267431
8 *91:9 *779:18 0.0278435
9 *91:17 *779:18 0.000803037
10 *105:17 *779:18 0.0021257
11 *115:9 *779:18 0.0177755
12 *123:9 *779:18 0.000756078
13 *157:7 gpio_slow_sel[37] 0
14 *189:9 *779:18 0.00589574
15 *215:33 *779:16 0.00886734
16 *283:9 *779:18 0.000905073
17 *402:9 *779:18 0.00542685
18 *425:17 *779:16 0.00406696
19 *440:7 gpio_slow_sel[37] 0.00072068
20 *471:9 gpio_slow_sel[37] 0.0130746
21 *661:15 *779:16 0.000261782
22 *689:11 *779:16 0.00316346
23 *705:39 *779:16 0.000414175
24 *733:11 *779:16 0.00197796
25 *735:11 *779:16 0.00303257
*RES
1 *874:gpio_slow_sel[37] *779:16 8.36584 
2 *779:16 *779:18 60.0729 
3 *779:18 gpio_slow_sel[37] 21.5932 
*END

*D_NET *780 0.0474772
*CONN
*P gpio_slow_sel[38] O
*I *874:gpio_slow_sel[38] O *D counter_gpio_config_example
*CAP
1 gpio_slow_sel[38] 0.00198503
2 *874:gpio_slow_sel[38] 0.0100252
3 *780:5 0.0120103
4 *212:13 gpio_slow_sel[38] 0.0117283
5 *296:13 gpio_slow_sel[38] 0.0117283
6 *472:7 gpio_slow_sel[38] 0
7 *670:7 *780:5 0
8 *702:7 *780:5 0
*RES
1 *874:gpio_slow_sel[38] *780:5 174.982 
2 *780:5 gpio_slow_sel[38] 21.9536 
*END

*D_NET *781 0.275497
*CONN
*P gpio_slow_sel[39] O
*I *874:gpio_slow_sel[39] O *D counter_gpio_config_example
*CAP
1 gpio_slow_sel[39] 6.64613e-05
2 *874:gpio_slow_sel[39] 0.00184659
3 *781:21 0.0525946
4 *781:19 0.0525282
5 *781:17 0.0195835
6 *781:15 0.0214301
7 *781:17 *783:13 0.073882
8 *781:17 *829:16 0.00127274
9 *104:27 *781:17 0.0026668
10 *142:13 *781:15 0
11 *271:21 *781:15 0.000110525
12 *323:15 *781:15 0.00108701
13 *544:17 *781:17 0.0375473
14 *704:5 *781:15 0
15 *743:17 *781:17 0.0106573
16 *758:5 *781:15 0
17 *763:5 *781:15 0
18 *770:7 *781:15 0.000223361
*RES
1 *874:gpio_slow_sel[39] *781:15 21.2352 
2 *781:15 *781:17 112.609 
3 *781:17 *781:19 0.5 
4 *781:19 *781:21 938.655 
5 *781:21 gpio_slow_sel[39] 1.2225 
*END

*D_NET *782 0.405475
*CONN
*P gpio_slow_sel[3] O
*I *874:gpio_slow_sel[3] O *D counter_gpio_config_example
*CAP
1 gpio_slow_sel[3] 0.123013
2 *874:gpio_slow_sel[3] 0.00103372
3 *782:36 0
4 *782:31 0.123013
5 *782:29 0.0214522
6 *782:27 0.0227663
7 *782:17 0.00425473
8 *782:15 0.00397432
9 *874:gpio_in[2] *782:27 0.000737505
10 *128:15 gpio_slow_sel[3] 0.00129041
11 *146:13 *782:29 0
12 *298:22 gpio_slow_sel[3] 0
13 *315:9 gpio_slow_sel[3] 0
14 *341:9 gpio_slow_sel[3] 0.00870025
15 *342:21 *782:27 0
16 *357:19 gpio_slow_sel[3] 0.000561728
17 *470:15 *782:15 0.00268182
18 *474:11 *782:29 0.0476294
19 *567:15 *782:17 0.0179732
20 *672:13 *782:29 0.000489585
21 *690:11 *782:15 0.00014664
22 *698:5 *782:15 0
23 *727:21 *782:17 0.0157614
24 *738:17 *782:27 0.00364291
25 *760:15 *782:15 0.00228304
26 *760:15 *782:17 0.00392719
27 *771:11 *782:15 0.000142595
*RES
1 *874:gpio_slow_sel[3] *782:15 12.8149 
2 *782:15 *782:17 165.705 
3 *782:17 *782:27 40.695 
4 *782:27 *782:29 562.253 
5 *782:29 *782:31 0.5 
6 *782:31 gpio_slow_sel[3] 297.556 
7 gpio_slow_sel[3] *782:36 0.0506667 
*END

*D_NET *783 0.339025
*CONN
*P gpio_slow_sel[40] O
*I *874:gpio_slow_sel[40] O *D counter_gpio_config_example
*CAP
1 gpio_slow_sel[40] 0.000266253
2 *874:gpio_slow_sel[40] 0.000981312
3 *783:17 0.0547092
4 *783:15 0.054443
5 *783:13 0.0232652
6 *783:11 0.0242465
7 *783:13 *829:16 0.00273856
8 *104:27 *783:13 0.00256024
9 *190:27 *783:13 0.000276109
10 *212:13 gpio_slow_sel[40] 0.000235184
11 *233:19 *783:11 0.00017007
12 *542:19 *783:11 1.61904e-05
13 *542:19 *783:13 0.00117582
14 *544:17 *783:11 0.00022228
15 *544:17 *783:13 3.18411e-05
16 *668:5 *783:11 0
17 *742:9 *783:13 0.0949503
18 *743:17 *783:13 0.00485517
19 *770:7 *783:11 0
20 *781:17 *783:13 0.073882
*RES
1 *874:gpio_slow_sel[40] *783:11 13.7851 
2 *783:11 *783:13 146.841 
3 *783:13 *783:15 0.5 
4 *783:15 *783:17 938.145 
5 *783:17 gpio_slow_sel[40] 4.8975 
*END

*D_NET *784 0.303711
*CONN
*P gpio_slow_sel[41] O
*I *874:gpio_slow_sel[41] O *D counter_gpio_config_example
*CAP
1 gpio_slow_sel[41] 0.00173242
2 *874:gpio_slow_sel[41] 0.00465645
3 *784:34 0.0681668
4 *784:32 0.0772027
5 *784:28 0.0189256
6 *784:14 0.0176401
7 *784:12 0.0141392
8 *784:34 *830:9 0
9 gpio_out[38] *784:34 0
10 *703:63 *784:28 0.0150124
11 *703:115 *784:14 0.0103454
12 *703:115 *784:28 0.00129142
13 *703:173 *784:12 0.015474
14 *703:173 *784:14 0.00327016
15 *736:10 *784:32 0
16 *740:16 *784:12 7.86633e-05
17 *765:13 *784:12 0.00888251
18 *765:13 *784:14 0.0281204
19 *765:13 *784:28 0.0187724
*RES
1 *874:gpio_slow_sel[41] *784:12 30.7046 
2 *784:12 *784:14 53.352 
3 *784:14 *784:28 45.5392 
4 *784:28 *784:32 24.5996 
5 *784:32 *784:34 153.483 
6 *784:34 gpio_slow_sel[41] 30.1325 
*END

*D_NET *785 0.208062
*CONN
*P gpio_slow_sel[42] O
*I *874:gpio_slow_sel[42] O *D counter_gpio_config_example
*CAP
1 gpio_slow_sel[42] 0.000103158
2 *874:gpio_slow_sel[42] 0.00725471
3 *785:13 0.00292308
4 *785:9 0.096673
5 *785:7 0.0938531
6 *785:5 0.00725471
7 *785:5 *786:7 0
8 *785:5 *832:7 0
9 *124:17 *785:9 0
10 *566:10 *785:9 0
*RES
1 *874:gpio_slow_sel[42] *785:5 128.062 
2 *785:5 *785:7 0.5 
3 *785:7 *785:9 217.081 
4 *785:9 *785:13 49.205 
5 *785:13 gpio_slow_sel[42] 1.8975 
*END

*D_NET *786 0.247911
*CONN
*P gpio_slow_sel[43] O
*I *874:gpio_slow_sel[43] O *D counter_gpio_config_example
*CAP
1 gpio_slow_sel[43] 0.000490242
2 *874:gpio_slow_sel[43] 0.00212787
3 *786:13 0.00805158
4 *786:11 0.00756134
5 *786:9 0.105025
6 *786:7 0.107153
7 *692:11 *786:9 0.017501
8 *695:14 *786:9 0
9 *778:11 *786:7 0
10 *785:5 *786:7 0
*RES
1 *874:gpio_slow_sel[43] *786:7 35.2325 
2 *786:7 *786:9 251.983 
3 *786:9 *786:11 0.5 
4 *786:11 *786:13 137.295 
5 *786:13 gpio_slow_sel[43] 6.3549 
*END

*D_NET *787 0.334106
*CONN
*P gpio_slow_sel[4] O
*I *874:gpio_slow_sel[4] O *D counter_gpio_config_example
*CAP
1 gpio_slow_sel[4] 9.67457e-05
2 *874:gpio_slow_sel[4] 0.000177564
3 *787:17 0.123321
4 *787:15 0.123857
5 *787:11 0.00970986
6 *787:7 0.00925511
7 *787:11 *804:9 0.000110525
8 *787:11 *829:16 0.000201441
9 *108:13 *787:15 0.00196316
10 *145:11 *787:17 0.0030804
11 *185:11 *787:17 0
12 *205:17 *787:11 3.47161e-05
13 *240:19 *787:11 0.000247141
14 *259:29 *787:11 0.000808238
15 *278:25 *787:11 0.000977167
16 *286:19 *787:11 0.00167601
17 *425:17 *787:11 0.000990161
18 *562:9 *787:11 0.00010189
19 *661:15 *787:11 0.00729527
20 *685:5 *787:7 0
21 *689:11 *787:11 0.000312484
22 *694:9 *787:11 0.0309143
23 *694:13 *787:15 0.000730961
24 *705:39 *787:11 0.000996938
25 *735:11 *787:11 0.00375547
26 *749:19 *787:11 0.0129141
27 *779:16 *787:11 0.000577784
*RES
1 *874:gpio_slow_sel[4] *787:7 3.1025 
2 *787:7 *787:11 48.8993 
3 *787:11 *787:15 23.555 
4 *787:15 *787:17 297.149 
5 *787:17 gpio_slow_sel[4] 0.278033 
*END

*D_NET *788 0.293859
*CONN
*P gpio_slow_sel[5] O
*I *874:gpio_slow_sel[5] O *D counter_gpio_config_example
*CAP
1 gpio_slow_sel[5] 0.00501653
2 *874:gpio_slow_sel[5] 0.00590298
3 *788:15 0.00746592
4 *788:9 0.132354
5 *788:7 0.129905
6 *788:5 0.00590298
7 *92:13 *788:15 0.00200854
8 *139:13 *788:9 0
9 *380:17 *788:9 0.00530359
10 *535:13 *788:9 0
11 *672:11 *788:5 0
12 *687:9 *788:5 0
*RES
1 *874:gpio_slow_sel[5] *788:5 101.033 
2 *788:5 *788:7 0.5 
3 *788:7 *788:9 315.96 
4 *788:9 *788:15 45.475 
5 *788:15 gpio_slow_sel[5] 10.2771 
*END

*D_NET *789 0.33532
*CONN
*P gpio_slow_sel[6] O
*I *874:gpio_slow_sel[6] O *D counter_gpio_config_example
*CAP
1 gpio_slow_sel[6] 0.149823
2 *874:gpio_slow_sel[6] 0.0177181
3 *789:12 1.3443e-05
4 *789:7 0.149809
5 *789:5 0.0177181
6 *789:5 *812:13 0
7 *305:13 gpio_slow_sel[6] 0
8 *468:13 *789:5 0.000237992
9 *570:10 gpio_slow_sel[6] 0
10 *681:7 *789:5 0
11 *721:13 *789:5 0
12 *776:5 *789:5 0
*RES
1 *874:gpio_slow_sel[6] *789:5 316.253 
2 *789:5 *789:7 0.5 
3 *789:7 gpio_slow_sel[6] 355.707 
4 gpio_slow_sel[6] *789:12 0.0386333 
*END

*D_NET *790 0.419369
*CONN
*P gpio_slow_sel[7] O
*I *874:gpio_slow_sel[7] O *D counter_gpio_config_example
*CAP
1 gpio_slow_sel[7] 0.00193812
2 *874:gpio_slow_sel[7] 0.0538362
3 *790:9 0.13946
4 *790:7 0.137522
5 *790:5 0.0538362
6 *482:9 gpio_slow_sel[7] 0
7 *482:9 *790:9 0
8 *706:13 *790:5 0.0327762
9 *707:5 *790:5 0
*RES
1 *874:gpio_slow_sel[7] *790:5 970.583 
2 *790:5 *790:7 0.5 
3 *790:7 *790:9 328.312 
4 *790:9 gpio_slow_sel[7] 12.1954 
*END

*D_NET *791 0.433156
*CONN
*P gpio_slow_sel[8] O
*I *874:gpio_slow_sel[8] O *D counter_gpio_config_example
*CAP
1 gpio_slow_sel[8] 5.22295e-05
2 *874:gpio_slow_sel[8] 0.00308961
3 *791:17 0.137933
4 *791:15 0.13788
5 *791:13 0.0426115
6 *791:11 0.048034
7 *791:5 0.00851207
8 *791:5 *804:7 0
9 *791:13 *801:13 0.000213565
10 gpio_holdover[22] *791:5 0.00183847
11 *228:13 *791:11 0
12 *307:21 *791:17 0
13 *676:5 *791:13 0.0407465
14 *678:11 *791:11 0.00211547
15 *680:11 *791:11 0.00399533
16 *754:13 *791:13 0.00613466
17 *768:5 *791:5 0
*RES
1 *874:gpio_slow_sel[8] *791:5 65.3325 
2 *791:5 *791:11 16.3039 
3 *791:11 *791:13 1084.36 
4 *791:13 *791:15 0.5 
5 *791:15 *791:17 329.02 
6 *791:17 gpio_slow_sel[8] 0.1501 
*END

*D_NET *792 0.571493
*CONN
*P gpio_slow_sel[9] O
*I *874:gpio_slow_sel[9] O *D counter_gpio_config_example
*CAP
1 gpio_slow_sel[9] 0.00929227
2 *874:gpio_slow_sel[9] 0.000100923
3 *792:21 0.0549552
4 *792:19 0.045663
5 *792:17 0.13219
6 *792:15 0.13219
7 *792:13 0.0885829
8 *792:11 0.0886839
9 *792:17 *798:17 0
10 *484:9 gpio_slow_sel[9] 0
11 *698:5 *792:11 0
12 *719:5 *792:13 0.010839
13 *727:19 *792:11 8.28896e-05
14 *751:13 *792:13 0.00694171
15 *775:5 *792:13 0.0019707
*RES
1 *874:gpio_slow_sel[9] *792:11 2.1979 
2 *792:11 *792:13 208.481 
3 *792:13 *792:15 0.5 
4 *792:15 *792:17 316.455 
5 *792:17 *792:19 0.5 
6 *792:19 *792:21 831.405 
7 *792:21 gpio_slow_sel[9] 20.7812 
*END

*D_NET *793 0.386411
*CONN
*P gpio_vtrip_sel[0] O
*I *874:gpio_vtrip_sel[0] O *D counter_gpio_config_example
*CAP
1 gpio_vtrip_sel[0] 1.56468e-05
2 *874:gpio_vtrip_sel[0] 0.000115399
3 *793:19 0.119552
4 *793:17 0.119536
5 *793:15 0.0368693
6 *793:13 0.0368693
7 *793:11 0.0132318
8 *793:9 0.0133472
9 *793:9 *803:5 0
10 gpio_ib_mode_sel[0] *793:19 0
11 *146:23 *793:11 0.000948589
12 *205:17 *793:11 0.00780822
13 *259:29 *793:11 0.000704249
14 *397:17 *793:19 0
15 *661:29 *793:19 0
16 *686:5 *793:9 0
17 *716:19 *793:11 0.0327285
18 *749:23 *793:11 0.0046847
*RES
1 *874:gpio_vtrip_sel[0] *793:9 3.905 
2 *793:9 *793:11 359.94 
3 *793:11 *793:13 2 
4 *793:13 *793:15 658.388 
5 *793:15 *793:17 0.5 
6 *793:17 *793:19 287.942 
7 *793:19 gpio_vtrip_sel[0] 0.0449667 
*END

*D_NET *794 0.848244
*CONN
*P gpio_vtrip_sel[10] O
*I *874:gpio_vtrip_sel[10] O *D counter_gpio_config_example
*CAP
1 gpio_vtrip_sel[10] 0.00532319
2 *874:gpio_vtrip_sel[10] 0.000812277
3 *794:13 0.131563
4 *794:11 0.12624
5 *794:9 0.0480757
6 *794:7 0.048888
7 *794:7 *831:7 0
8 *100:13 *794:13 0.00066159
9 *131:13 *794:13 0.0618337
10 *564:10 *794:9 0.00121887
11 *662:31 gpio_vtrip_sel[10] 0
12 *701:9 *794:9 0.215021
13 *702:9 *794:9 0.204499
14 *706:17 gpio_vtrip_sel[10] 0
15 *718:11 *794:9 0.00410755
16 *737:5 *794:7 0
*RES
1 *874:gpio_vtrip_sel[10] *794:7 12.7925 
2 *794:7 *794:9 331.808 
3 *794:9 *794:11 0.5 
4 *794:11 *794:13 2288.99 
5 *794:13 gpio_vtrip_sel[10] 11.8284 
*END

*D_NET *795 0.548881
*CONN
*P gpio_vtrip_sel[11] O
*I *874:gpio_vtrip_sel[11] O *D counter_gpio_config_example
*CAP
1 gpio_vtrip_sel[11] 3.38214e-05
2 *874:gpio_vtrip_sel[11] 0.0707744
3 *795:9 0.134287
4 *795:7 0.134253
5 *795:5 0.0707744
6 *795:5 *802:5 0
7 *795:5 *805:21 0.034192
8 gpio_ib_mode_sel[11] *795:9 0.0246373
9 *415:17 *795:9 0.0250845
10 *661:15 *795:5 0
11 *663:13 *795:9 0
12 *750:13 *795:5 0.054844
*RES
1 *874:gpio_vtrip_sel[11] *795:5 1698.35 
2 *795:5 *795:7 0.5 
3 *795:7 *795:9 334.09 
4 *795:9 gpio_vtrip_sel[11] 0.0893 
*END

*D_NET *796 0.545082
*CONN
*P gpio_vtrip_sel[12] O
*I *874:gpio_vtrip_sel[12] O *D counter_gpio_config_example
*CAP
1 gpio_vtrip_sel[12] 0.000239253
2 *874:gpio_vtrip_sel[12] 0.00324922
3 *796:17 0.138043
4 *796:15 0.137803
5 *796:13 0.0770473
6 *796:11 0.0802965
7 gpio_holdover[12] *796:17 0
8 gpio_out[12] *796:17 0
9 *143:13 *796:11 0.000301857
10 *370:17 *796:17 0.00360916
11 *400:17 *796:17 0
12 *682:5 *796:13 0.104493
13 *703:177 *796:11 0
14 *703:179 *796:11 0
15 *749:19 *796:11 0
16 *774:5 *796:13 0
*RES
1 *874:gpio_vtrip_sel[12] *796:11 35.5073 
2 *796:11 *796:13 1832.03 
3 *796:13 *796:15 0.5 
4 *796:15 *796:17 320.28 
5 *796:17 gpio_vtrip_sel[12] 0.6821 
*END

*D_NET *797 0.59231
*CONN
*P gpio_vtrip_sel[13] O
*I *874:gpio_vtrip_sel[13] O *D counter_gpio_config_example
*CAP
1 gpio_vtrip_sel[13] 8.39638e-05
2 *874:gpio_vtrip_sel[13] 0.00936449
3 *797:17 0.0485587
4 *797:15 0.0484747
5 *797:13 0.11215
6 *797:11 0.11215
7 *797:9 0.0680844
8 *797:7 0.0680844
9 *797:5 0.00936449
10 gpio_ib_mode_sel[13] *797:17 0.000399076
11 *281:19 *797:9 5.2007e-06
12 *401:17 *797:17 0.11559
13 *665:34 *797:17 0
14 *722:5 *797:5 0
15 *750:11 *797:5 0
*RES
1 *874:gpio_vtrip_sel[13] *797:5 163.253 
2 *797:5 *797:7 0.5 
3 *797:7 *797:9 160.446 
4 *797:9 *797:11 0.5 
5 *797:11 *797:13 2037.56 
6 *797:13 *797:15 0.5 
7 *797:15 *797:17 176.944 
8 *797:17 gpio_vtrip_sel[13] 0.2413 
*END

*D_NET *798 0.76179
*CONN
*P gpio_vtrip_sel[14] O
*I *874:gpio_vtrip_sel[14] O *D counter_gpio_config_example
*CAP
1 gpio_vtrip_sel[14] 0.00331794
2 *874:gpio_vtrip_sel[14] 0.0001347
3 *798:21 0.116149
4 *798:19 0.112831
5 *798:17 0.142384
6 *798:15 0.142384
7 *798:13 0.0783934
8 *798:11 0.0785281
9 *798:11 *800:11 0
10 *798:11 *828:5 0
11 *798:13 *800:13 0.0132757
12 *798:13 *814:13 0
13 *798:17 *801:17 0
14 gpio_ib_mode_sel[14] gpio_vtrip_sel[14] 0.00167422
15 *92:13 *798:21 0.0589336
16 *666:21 gpio_vtrip_sel[14] 0.00482258
17 *690:13 *798:11 4.59533e-05
18 *710:13 *798:13 0
19 *728:27 *798:17 0
20 *769:5 *798:13 0.00891659
21 *792:17 *798:17 0
*RES
1 *874:gpio_vtrip_sel[14] *798:11 2.1979 
2 *798:11 *798:13 209.342 
3 *798:13 *798:15 0.5 
4 *798:15 *798:17 339.937 
5 *798:17 *798:19 0.5 
6 *798:19 *798:21 2048.26 
7 *798:21 gpio_vtrip_sel[14] 10.6618 
*END

*D_NET *799 0.60995
*CONN
*P gpio_vtrip_sel[15] O
*I *874:gpio_vtrip_sel[15] O *D counter_gpio_config_example
*CAP
1 gpio_vtrip_sel[15] 8.17048e-05
2 *874:gpio_vtrip_sel[15] 0.0302859
3 *799:13 0.117159
4 *799:11 0.117077
5 *799:9 0.121781
6 *799:7 0.121781
7 *799:5 0.0302859
8 *799:9 *835:17 0
9 gpio_ib_mode_sel[15] gpio_vtrip_sel[15] 0
10 *226:13 *799:13 0.0714982
11 *403:21 *799:13 0
*RES
1 *874:gpio_vtrip_sel[15] *799:5 520.253 
2 *799:5 *799:7 0.5 
3 *799:7 *799:9 291.954 
4 *799:9 *799:11 0.5 
5 *799:11 *799:13 2127.82 
6 *799:13 gpio_vtrip_sel[15] 1.35 
*END

*D_NET *800 0.711093
*CONN
*P gpio_vtrip_sel[16] O
*I *874:gpio_vtrip_sel[16] O *D counter_gpio_config_example
*CAP
1 gpio_vtrip_sel[16] 0.010553
2 *874:gpio_vtrip_sel[16] 0.000105122
3 *800:19 0.010553
4 *800:17 0.106154
5 *800:15 0.106154
6 *800:13 0.191677
7 *800:11 0.191782
8 gpio_ib_mode_sel[16] gpio_vtrip_sel[16] 0
9 *690:13 *800:11 2.46013e-05
10 *747:5 *800:13 0.020699
11 *761:11 *800:11 0
12 *761:13 *800:13 0.0447291
13 *762:13 *800:13 0
14 *769:5 *800:13 0.0153865
15 *798:11 *800:11 0
16 *798:13 *800:13 0.0132757
*RES
1 *874:gpio_vtrip_sel[16] *800:11 2.13963 
2 *800:11 *800:13 543.195 
3 *800:13 *800:15 0.5 
4 *800:15 *800:17 255.974 
5 *800:17 *800:19 0.5 
6 *800:19 gpio_vtrip_sel[16] 183.143 
*END

*D_NET *801 0.577782
*CONN
*P gpio_vtrip_sel[17] O
*I *874:gpio_vtrip_sel[17] O *D counter_gpio_config_example
*CAP
1 gpio_vtrip_sel[17] 0.118538
2 *874:gpio_vtrip_sel[17] 0.000104885
3 *801:19 0.118538
4 *801:17 0.0846014
5 *801:15 0.0846014
6 *801:13 0.0786155
7 *801:11 0.0787204
8 *801:13 *810:13 0
9 gpio_ib_mode_sel[17] gpio_vtrip_sel[17] 0
10 *122:193 *801:13 0.000820064
11 *683:11 *801:11 4.59533e-05
12 *700:7 *801:11 0
13 *754:11 *801:11 0
14 *754:13 *801:13 0.012982
15 *791:13 *801:13 0.000213565
16 *798:17 *801:17 0
*RES
1 *874:gpio_vtrip_sel[17] *801:11 2.1979 
2 *801:11 *801:13 210.203 
3 *801:13 *801:15 0.5 
4 *801:15 *801:17 201.728 
5 *801:17 *801:19 0.5 
6 *801:19 gpio_vtrip_sel[17] 2154.8 
*END

*D_NET *802 0.420239
*CONN
*P gpio_vtrip_sel[18] O
*I *874:gpio_vtrip_sel[18] O *D counter_gpio_config_example
*CAP
1 gpio_vtrip_sel[18] 0.115702
2 *874:gpio_vtrip_sel[18] 0.0305623
3 *802:11 0.115702
4 *802:9 0.0638558
5 *802:7 0.0638558
6 *802:5 0.0305623
7 gpio_ib_mode_sel[18] gpio_vtrip_sel[18] 0
8 *720:5 *802:5 0
9 *750:13 *802:5 0
10 *795:5 *802:5 0
*RES
1 *874:gpio_vtrip_sel[18] *802:5 546.263 
2 *802:5 *802:7 0.5 
3 *802:7 *802:9 151.182 
4 *802:9 *802:11 0.5 
5 *802:11 gpio_vtrip_sel[18] 2102.78 
*END

*D_NET *803 0.386834
*CONN
*P gpio_vtrip_sel[19] O
*I *874:gpio_vtrip_sel[19] O *D counter_gpio_config_example
*CAP
1 gpio_vtrip_sel[19] 0.140892
2 *874:gpio_vtrip_sel[19] 0.0054708
3 *803:11 0.140892
4 *803:9 0.0439221
5 *803:7 0.0439221
6 *803:5 0.0054708
7 gpio_ib_mode_sel[19] gpio_vtrip_sel[19] 0
8 *466:17 *803:9 0
9 *535:13 *803:9 0
10 *763:11 *803:9 0.00626355
11 *793:9 *803:5 0
*RES
1 *874:gpio_vtrip_sel[19] *803:5 90.8325 
2 *803:5 *803:7 0.5 
3 *803:7 *803:9 100.548 
4 *803:9 *803:11 0.5 
5 *803:11 gpio_vtrip_sel[19] 2558.21 
*END

*D_NET *804 0.373676
*CONN
*P gpio_vtrip_sel[1] O
*I *874:gpio_vtrip_sel[1] O *D counter_gpio_config_example
*CAP
1 gpio_vtrip_sel[1] 0.0118923
2 *874:gpio_vtrip_sel[1] 0.000223579
3 *804:13 0.0390206
4 *804:11 0.0271283
5 *804:9 0.0677535
6 *804:7 0.0679771
7 gpio_ib_mode_sel[1] gpio_vtrip_sel[1] 0
8 *127:21 *804:9 0
9 *259:29 *804:9 0.119042
10 *278:25 *804:9 0.00683603
11 *408:17 gpio_vtrip_sel[1] 0
12 *562:9 *804:9 0.0300064
13 *661:15 *804:9 0.000828005
14 *716:27 gpio_vtrip_sel[1] 0
15 *735:11 *804:9 0.000226671
16 *749:19 *804:9 0.00263111
17 *787:11 *804:9 0.000110525
18 *791:5 *804:7 0
*RES
1 *874:gpio_vtrip_sel[1] *804:7 5.24 
2 *804:7 *804:9 1883.81 
3 *804:9 *804:11 2 
4 *804:11 *804:13 489.832 
5 *804:13 gpio_vtrip_sel[1] 26.4293 
*END

*D_NET *805 0.583092
*CONN
*P gpio_vtrip_sel[20] O
*I *874:gpio_vtrip_sel[20] O *D counter_gpio_config_example
*CAP
1 gpio_vtrip_sel[20] 7.79348e-05
2 *874:gpio_vtrip_sel[20] 8.45118e-05
3 *805:29 0.00532353
4 *805:27 0.0052456
5 *805:25 0.0219663
6 *805:23 0.0219663
7 *805:21 0.18317
8 *805:19 0.188225
9 *805:13 0.0412489
10 *805:11 0.0362789
11 gpio_ib_mode_sel[20] gpio_vtrip_sel[20] 0
12 gpio_ib_mode_sel[20] *805:29 0
13 *122:193 *805:19 0.000123126
14 *145:13 *805:29 0
15 *187:19 *805:25 0.00195859
16 *368:61 *805:25 0
17 *674:7 *805:11 0
18 *727:19 *805:11 4.43752e-05
19 *750:13 *805:21 0.0431868
20 *795:5 *805:21 0.034192
*RES
1 *874:gpio_vtrip_sel[20] *805:11 2.13963 
2 *805:11 *805:13 90.9771 
3 *805:13 *805:19 12.8161 
4 *805:19 *805:21 454.921 
5 *805:21 *805:23 0.5 
6 *805:23 *805:25 53.5559 
7 *805:25 *805:27 0.5 
8 *805:27 *805:29 93.945 
9 *805:29 gpio_vtrip_sel[20] 1.35 
*END

*D_NET *806 0.478345
*CONN
*P gpio_vtrip_sel[21] O
*I *874:gpio_vtrip_sel[21] O *D counter_gpio_config_example
*CAP
1 gpio_vtrip_sel[21] 7.14345e-05
2 *874:gpio_vtrip_sel[21] 0.000112846
3 *806:21 0.00806777
4 *806:19 0.0188508
5 *806:13 0.229386
6 *806:11 0.218645
7 *410:21 gpio_vtrip_sel[21] 2.23231e-05
8 *410:21 *806:21 0
9 *534:34 *806:19 0
10 *568:5 *806:13 0.0031425
11 *690:13 *806:11 4.59533e-05
12 *717:7 *806:11 0
13 *728:13 *806:13 0
14 *728:19 *806:13 0
15 *728:21 *806:13 0
16 *743:13 *806:13 0
*RES
1 *874:gpio_vtrip_sel[21] *806:11 2.1979 
2 *806:11 *806:13 550.258 
3 *806:13 *806:19 27.2871 
4 *806:19 *806:21 140.355 
5 *806:21 gpio_vtrip_sel[21] 1.35 
*END

*D_NET *807 0.508104
*CONN
*P gpio_vtrip_sel[22] O
*I *874:gpio_vtrip_sel[22] O *D counter_gpio_config_example
*CAP
1 gpio_vtrip_sel[22] 0.00947837
2 *874:gpio_vtrip_sel[22] 0.0001347
3 *807:19 0.00973535
4 *807:13 0.18981
5 *807:11 0.189687
6 *807:13 *835:13 0
7 gpio_ib_mode_sel[22] gpio_vtrip_sel[22] 0
8 *685:5 *807:13 0.000637959
9 *690:13 *807:11 4.59533e-05
10 *696:10 *807:13 0.037691
11 *755:11 *807:11 0
12 *755:13 *807:13 0.035019
13 *768:5 *807:13 0.035865
14 *777:7 *807:11 0
*RES
1 *874:gpio_vtrip_sel[22] *807:11 2.1979 
2 *807:11 *807:13 545.434 
3 *807:13 *807:19 1.6498 
4 *807:19 gpio_vtrip_sel[22] 169.883 
*END

*D_NET *808 0.342924
*CONN
*P gpio_vtrip_sel[23] O
*I *874:gpio_vtrip_sel[23] O *D counter_gpio_config_example
*CAP
1 gpio_vtrip_sel[23] 0.00215352
2 *874:gpio_vtrip_sel[23] 0.13477
3 *808:13 0.0121115
4 *808:11 0.00995801
5 *808:9 0.02458
6 *808:7 0.02458
7 *808:5 0.13477
8 gpio_ib_mode_sel[23] gpio_vtrip_sel[23] 0
9 *412:9 *808:13 0
10 *572:5 *808:5 0
11 *666:17 *808:13 0
12 *745:5 *808:5 0
*RES
1 *874:gpio_vtrip_sel[23] *808:5 2440.4 
2 *808:5 *808:7 0.5 
3 *808:7 *808:9 58.8291 
4 *808:9 *808:11 0.5 
5 *808:11 *808:13 173.55 
6 *808:13 gpio_vtrip_sel[23] 36.0975 
*END

*D_NET *809 0.408914
*CONN
*P gpio_vtrip_sel[24] O
*I *874:gpio_vtrip_sel[24] O *D counter_gpio_config_example
*CAP
1 gpio_vtrip_sel[24] 0.00100283
2 *874:gpio_vtrip_sel[24] 0.00292616
3 *809:17 0.0268826
4 *809:15 0.0258798
5 *809:13 0.106083
6 *809:11 0.109009
7 *809:11 *818:5 0
8 gpio_ib_mode_sel[24] gpio_vtrip_sel[24] 0.00146034
9 gpio_ib_mode_sel[24] *809:17 0.0053689
10 gpio_oeb[24] *809:17 0
11 gpio_out[24] gpio_vtrip_sel[24] 0
12 gpio_out[24] *809:17 0
13 *143:13 *809:11 0.000255698
14 *680:13 *809:13 0.130045
15 *712:5 *809:11 0
16 *720:5 *809:13 0
17 *775:5 *809:13 0
*RES
1 *874:gpio_vtrip_sel[24] *809:11 34.9829 
2 *809:11 *809:13 2468.5 
3 *809:13 *809:15 0.5 
4 *809:15 *809:17 63.7235 
5 *809:17 gpio_vtrip_sel[24] 4.70203 
*END

*D_NET *810 0.453105
*CONN
*P gpio_vtrip_sel[25] O
*I *874:gpio_vtrip_sel[25] O *D counter_gpio_config_example
*CAP
1 gpio_vtrip_sel[25] 0.00454032
2 *874:gpio_vtrip_sel[25] 0.000104885
3 *810:21 0.05668
4 *810:19 0.0521397
5 *810:17 0.0270306
6 *810:15 0.0270306
7 *810:13 0.0869992
8 *810:11 0.0871041
9 gpio_ib_mode_sel[25] gpio_vtrip_sel[25] 0.000166625
10 gpio_oeb[25] gpio_vtrip_sel[25] 0
11 *113:17 *810:17 0
12 *245:13 *810:17 0
13 *365:9 *810:21 0
14 *366:9 *810:21 0
15 *370:17 gpio_vtrip_sel[25] 0.00195976
16 *413:17 *810:21 0.00969908
17 *673:11 *810:11 0
18 *673:13 *810:13 0.018018
19 *676:5 *810:13 0.00630409
20 *683:11 *810:11 4.59533e-05
21 *722:17 gpio_vtrip_sel[25] 0
22 *754:11 *810:11 0
23 *754:13 *810:13 0.0409909
24 *757:5 *810:13 0.0342914
25 *801:13 *810:13 0
*RES
1 *874:gpio_vtrip_sel[25] *810:11 2.1979 
2 *810:11 *810:13 281.866 
3 *810:13 *810:15 0.5 
4 *810:15 *810:17 60.7227 
5 *810:17 *810:19 0.5 
6 *810:19 *810:21 945.135 
7 *810:21 gpio_vtrip_sel[25] 11.9032 
*END

*D_NET *811 0.313085
*CONN
*P gpio_vtrip_sel[26] O
*I *874:gpio_vtrip_sel[26] O *D counter_gpio_config_example
*CAP
1 gpio_vtrip_sel[26] 0.0162939
2 *874:gpio_vtrip_sel[26] 0.00640047
3 *811:13 0.0785929
4 *811:11 0.0662917
5 *811:5 0.0103932
6 *811:5 *812:5 0
7 gpio_ib_mode_sel[26] gpio_vtrip_sel[26] 0
8 gpio_inp_dis[22] *811:5 0
9 *139:13 *811:11 0.0114038
10 *415:17 gpio_vtrip_sel[26] 0
11 *556:17 *811:11 0.00232591
12 *663:13 gpio_vtrip_sel[26] 0.0116319
13 *685:13 *811:13 0.00448867
14 *723:9 gpio_vtrip_sel[26] 0
15 *725:21 *811:13 0.105263
16 *772:5 *811:5 0
*RES
1 *874:gpio_vtrip_sel[26] *811:5 106.643 
2 *811:5 *811:11 18.4015 
3 *811:11 *811:13 1597.43 
4 *811:13 gpio_vtrip_sel[26] 42.0891 
*END

*D_NET *812 0.295669
*CONN
*P gpio_vtrip_sel[27] O
*I *874:gpio_vtrip_sel[27] O *D counter_gpio_config_example
*CAP
1 gpio_vtrip_sel[27] 0.0199995
2 *874:gpio_vtrip_sel[27] 0.00353855
3 *812:13 0.0712242
4 *812:11 0.055599
5 *812:5 0.00791282
6 gpio_ib_mode_sel[27] gpio_vtrip_sel[27] 0.000609354
7 gpio_inp_dis[22] *812:5 0.00225497
8 *228:13 *812:11 0.00190849
9 *359:13 *812:11 0
10 *413:17 gpio_vtrip_sel[27] 0.000291325
11 *677:13 *812:13 0.121756
12 *680:17 gpio_vtrip_sel[27] 0
13 *681:7 *812:13 0.0047078
14 *684:11 *812:11 0.00586698
15 *688:19 *812:5 0
16 *724:17 gpio_vtrip_sel[27] 0
17 *789:5 *812:13 0
18 *811:5 *812:5 0
*RES
1 *874:gpio_vtrip_sel[27] *812:5 70.9425 
2 *812:5 *812:11 15.2551 
3 *812:11 *812:13 1466.86 
4 *812:13 gpio_vtrip_sel[27] 46.3666 
*END

*D_NET *813 0.350325
*CONN
*P gpio_vtrip_sel[28] O
*I *874:gpio_vtrip_sel[28] O *D counter_gpio_config_example
*CAP
1 gpio_vtrip_sel[28] 0.00170949
2 *874:gpio_vtrip_sel[28] 0.000600968
3 *813:13 0.124343
4 *813:11 0.122633
5 *813:9 0.0104636
6 *813:7 0.0110646
7 *813:7 *830:5 0
8 *813:9 *819:11 0.0304928
9 gpio_ib_mode_sel[28] gpio_vtrip_sel[28] 0.0012989
10 gpio_out[28] gpio_vtrip_sel[28] 0
11 *462:19 *813:9 0.0418258
12 *529:13 *813:9 0.00509482
13 *674:11 *813:9 0.000798583
14 *706:11 *813:7 0
*RES
1 *874:gpio_vtrip_sel[28] *813:7 9.2225 
2 *813:7 *813:9 64.7723 
3 *813:9 *813:11 0.5 
4 *813:11 *813:13 2135.99 
5 *813:13 gpio_vtrip_sel[28] 4.7541 
*END

*D_NET *814 0.293446
*CONN
*P gpio_vtrip_sel[29] O
*I *874:gpio_vtrip_sel[29] O *D counter_gpio_config_example
*CAP
1 gpio_vtrip_sel[29] 0.0181705
2 *874:gpio_vtrip_sel[29] 0.000132832
3 *814:21 0.080253
4 *814:19 0.0671325
5 *814:13 0.0506392
6 *814:11 0.0457221
7 gpio_holdover[29] gpio_vtrip_sel[29] 0
8 gpio_ib_mode_sel[29] gpio_vtrip_sel[29] 0
9 *535:13 *814:19 0
10 *682:9 gpio_vtrip_sel[29] 0
11 *686:5 *814:13 0.00127119
12 *690:13 *814:11 4.59533e-05
13 *710:11 *814:11 0
14 *710:13 *814:13 0.0282829
15 *763:11 *814:19 0.00165859
16 *772:13 *814:13 0.000137349
17 *798:13 *814:13 0
*RES
1 *874:gpio_vtrip_sel[29] *814:11 2.1979 
2 *814:11 *814:13 142.072 
3 *814:13 *814:19 13.3031 
4 *814:19 *814:21 1126.19 
5 *814:21 gpio_vtrip_sel[29] 40.4462 
*END

*D_NET *815 0.480983
*CONN
*P gpio_vtrip_sel[2] O
*I *874:gpio_vtrip_sel[2] O *D counter_gpio_config_example
*CAP
1 gpio_vtrip_sel[2] 9.45419e-05
2 *874:gpio_vtrip_sel[2] 0.00507027
3 *815:21 0.0821431
4 *815:19 0.0820485
5 *815:17 0.014342
6 *815:15 0.0194122
7 gpio_ib_mode_sel[2] *815:21 0.000789132
8 *874:gpio_in[12] *815:17 0
9 *137:11 *815:17 0
10 *177:11 *815:21 0.00110382
11 *214:11 *815:21 0.00406821
12 *234:11 *815:17 0
13 *234:13 *815:17 0.000296368
14 *362:9 *815:21 0
15 *419:17 *815:21 0.190916
16 *450:17 *815:15 0.000590016
17 *543:13 *815:17 0.00322718
18 *546:13 *815:17 0
19 *567:15 *815:15 0.00290932
20 *567:21 *815:15 0.000229629
21 *683:11 *815:15 0.0182882
22 *692:7 *815:15 4.87899e-05
23 *727:19 *815:15 3.59531e-06
24 *727:25 *815:17 0.0371137
25 *760:15 *815:15 0.018289
*RES
1 *874:gpio_vtrip_sel[2] *815:15 34.2381 
2 *815:15 *815:17 431.565 
3 *815:17 *815:19 0.5 
4 *815:19 *815:21 299.304 
5 *815:21 gpio_vtrip_sel[2] 0.2717 
*END

*D_NET *816 0.228652
*CONN
*P gpio_vtrip_sel[30] O
*I *874:gpio_vtrip_sel[30] O *D counter_gpio_config_example
*CAP
1 gpio_vtrip_sel[30] 0.011993
2 *874:gpio_vtrip_sel[30] 0.00479623
3 *816:13 0.0454335
4 *816:11 0.0364031
5 *816:5 0.00775877
6 gpio_ib_mode_sel[30] gpio_vtrip_sel[30] 0.000448546
7 *413:17 gpio_vtrip_sel[30] 0.000291325
8 *420:18 gpio_vtrip_sel[30] 0.0131538
9 *536:13 *816:11 0.00797424
10 *662:27 *816:13 0.0119231
11 *665:30 *816:13 0.0859627
12 *688:25 *816:11 0.00139379
13 *732:5 *816:5 0
14 *732:15 *816:13 0.00112013
15 *733:11 *816:5 0
*RES
1 *874:gpio_vtrip_sel[30] *816:5 81.1425 
2 *816:5 *816:11 13.3323 
3 *816:11 *816:13 970.635 
4 *816:13 gpio_vtrip_sel[30] 32.3877 
*END

*D_NET *817 0.296885
*CONN
*P gpio_vtrip_sel[31] O
*I *874:gpio_vtrip_sel[31] O *D counter_gpio_config_example
*CAP
1 gpio_vtrip_sel[31] 0.00170069
2 *874:gpio_vtrip_sel[31] 0.000132832
3 *817:25 0.0255584
4 *817:23 0.0238577
5 *817:21 0.0545867
6 *817:19 0.0600338
7 *817:13 0.0318198
8 *817:11 0.0265055
9 gpio_ib_mode_sel[22] *817:21 0.0137612
10 gpio_ib_mode_sel[31] gpio_vtrip_sel[31] 0.000752746
11 *122:193 *817:19 0.000269505
12 *462:15 gpio_vtrip_sel[31] 0.000724371
13 *690:13 *817:11 4.59533e-05
14 *729:17 *817:25 0
15 *755:11 *817:11 0
16 *755:13 *817:13 0.0170204
17 *755:13 *817:19 0.0054471
18 *755:13 *817:21 0.0346682
*RES
1 *874:gpio_vtrip_sel[31] *817:11 2.1979 
2 *817:11 *817:13 84.8591 
3 *817:13 *817:19 18.7011 
4 *817:19 *817:21 171.714 
5 *817:21 *817:23 0.5 
6 *817:23 *817:25 53.0315 
7 *817:25 gpio_vtrip_sel[31] 18.5227 
*END

*D_NET *818 0.12155
*CONN
*P gpio_vtrip_sel[32] O
*I *874:gpio_vtrip_sel[32] O *D counter_gpio_config_example
*CAP
1 gpio_vtrip_sel[32] 0.00347665
2 *874:gpio_vtrip_sel[32] 0.0171229
3 *818:13 0.00731653
4 *818:11 0.00383988
5 *818:9 0.0247899
6 *818:7 0.0247899
7 *818:5 0.0171229
8 gpio_ib_mode_sel[32] gpio_vtrip_sel[32] 6.11805e-05
9 gpio_oeb[32] gpio_vtrip_sel[32] 0
10 gpio_out[32] gpio_vtrip_sel[32] 0
11 *467:13 *818:9 3.12141e-05
12 *545:22 *818:9 0
13 *548:9 *818:13 0.00988217
14 *668:9 *818:9 0.0131164
15 *752:5 *818:5 0
16 *809:11 *818:5 0
*RES
1 *874:gpio_vtrip_sel[32] *818:5 303.503 
2 *818:5 *818:7 0.5 
3 *818:7 *818:9 61.9755 
4 *818:9 *818:11 0.5 
5 *818:11 *818:13 111.285 
6 *818:13 gpio_vtrip_sel[32] 7.36343 
*END

*D_NET *819 0.217874
*CONN
*P gpio_vtrip_sel[33] O
*I *874:gpio_vtrip_sel[33] O *D counter_gpio_config_example
*CAP
1 gpio_vtrip_sel[33] 0.00281296
2 *874:gpio_vtrip_sel[33] 0.000643976
3 *819:13 0.0585347
4 *819:11 0.0645038
5 *819:7 0.00942608
6 *416:23 *819:13 0.00599937
7 *416:25 *819:13 0.0132562
8 *417:9 *819:13 0
9 *423:17 gpio_vtrip_sel[33] 0.000583536
10 *424:9 *819:13 0.00976538
11 *424:35 *819:13 0
12 *529:13 *819:11 0.0218554
13 *701:7 *819:7 0
14 *710:11 *819:7 0
15 *813:9 *819:11 0.0304928
*RES
1 *874:gpio_vtrip_sel[33] *819:7 9.7325 
2 *819:7 *819:11 47.6175 
3 *819:11 *819:13 1009.91 
4 *819:13 gpio_vtrip_sel[33] 6.5173 
*END

*D_NET *820 0.2196
*CONN
*P gpio_vtrip_sel[34] O
*I *874:gpio_vtrip_sel[34] O *D counter_gpio_config_example
*CAP
1 gpio_vtrip_sel[34] 0.00303466
2 *874:gpio_vtrip_sel[34] 0.00024554
3 *820:13 0.0345169
4 *820:11 0.0388528
5 *820:7 0.00761618
6 *820:7 *833:7 0
7 *820:11 *821:9 2.67918e-05
8 gpio_ib_mode_sel[34] gpio_vtrip_sel[34] 0.00377193
9 gpio_out[34] gpio_vtrip_sel[34] 0
10 *458:11 *820:13 0.0728744
11 *460:21 *820:11 9.59362e-06
12 *470:15 *820:11 0.00285164
13 *662:25 *820:11 0.000625288
14 *726:19 *820:11 0.00784902
15 *730:7 *820:7 0
16 *777:9 *820:11 0.0302967
17 *778:11 *820:11 0.0170286
*RES
1 *874:gpio_vtrip_sel[34] *820:7 4.1225 
2 *820:7 *820:11 47.4427 
3 *820:11 *820:13 842.115 
4 *820:13 gpio_vtrip_sel[34] 8.35397 
*END

*D_NET *821 0.225852
*CONN
*P gpio_vtrip_sel[35] O
*I *874:gpio_vtrip_sel[35] O *D counter_gpio_config_example
*CAP
1 gpio_vtrip_sel[35] 0.00746957
2 *874:gpio_vtrip_sel[35] 0.000351296
3 *821:13 0.0299332
4 *821:11 0.0224636
5 *821:9 0.00850357
6 *821:7 0.00885486
7 gpio_ib_mode_sel[35] gpio_vtrip_sel[35] 0.000434304
8 gpio_oeb[35] gpio_vtrip_sel[35] 0.0097969
9 *95:9 *821:13 0
10 *102:9 *821:13 0
11 *151:9 *821:13 0.0256034
12 *168:9 *821:13 0
13 *325:9 *821:13 0.0103969
14 *460:21 *821:9 0.000298928
15 *470:11 *821:13 0.0289021
16 *470:15 *821:9 0.0365582
17 *471:15 *821:9 0.0361012
18 *725:11 *821:7 0
19 *726:19 *821:13 0.000118213
20 *730:19 *821:13 3.86814e-05
21 *820:11 *821:9 2.67918e-05
*RES
1 *874:gpio_vtrip_sel[35] *821:7 5.6525 
2 *821:7 *821:9 56.7315 
3 *821:9 *821:11 0.5 
4 *821:11 *821:13 682.485 
5 *821:13 gpio_vtrip_sel[35] 20.4481 
*END

*D_NET *822 0.0828773
*CONN
*P gpio_vtrip_sel[36] O
*I *874:gpio_vtrip_sel[36] O *D counter_gpio_config_example
*CAP
1 gpio_vtrip_sel[36] 0.00824661
2 *874:gpio_vtrip_sel[36] 0.00730892
3 *822:10 0.0204986
4 *822:8 0.0195609
5 *822:8 *823:6 0.017886
6 *183:9 *822:10 0
7 *193:9 *822:10 0.000848297
8 *205:17 *822:8 0.00397728
9 *284:9 *822:10 0.00444836
10 *304:9 *822:10 0
11 *377:15 *822:8 7.64782e-05
12 *691:9 *822:8 2.57618e-05
13 *734:11 *822:8 0
*RES
1 *874:gpio_vtrip_sel[36] *822:8 29.0643 
2 *822:8 *822:10 229.095 
3 *822:10 gpio_vtrip_sel[36] 17.1788 
*END

*D_NET *823 0.119313
*CONN
*P gpio_vtrip_sel[37] O
*I *874:gpio_vtrip_sel[37] O *D counter_gpio_config_example
*CAP
1 gpio_vtrip_sel[37] 0.00687422
2 *874:gpio_vtrip_sel[37] 0
3 *823:10 0.0286308
4 *823:8 0.0217566
5 *823:6 0.0184152
6 *823:4 0.0184152
7 *823:6 *826:12 0.00318184
8 gpio_analog_sel[37] gpio_vtrip_sel[37] 0.00021625
9 gpio_ib_mode_sel[37] gpio_vtrip_sel[37] 7.36553e-05
10 *205:17 *823:6 0.00145022
11 *279:9 *823:10 0
12 *295:24 gpio_vtrip_sel[37] 0
13 *339:35 gpio_vtrip_sel[37] 0
14 *354:17 *823:10 0
15 *395:9 *823:10 0
16 *427:21 gpio_vtrip_sel[37] 0.000675222
17 *695:8 *823:6 0.000667411
18 *696:8 *823:6 0.000761796
19 *716:17 *823:6 0.000309
20 *726:21 gpio_vtrip_sel[37] 0
21 *734:11 *823:6 0
22 *822:8 *823:6 0.017886
*RES
1 *874:gpio_vtrip_sel[37] *823:4 0.5 
2 *823:4 *823:6 53.1772 
3 *823:6 *823:8 0.5 
4 *823:8 *823:10 378.525 
5 *823:10 gpio_vtrip_sel[37] 28.307 
*END

*D_NET *824 0.161241
*CONN
*P gpio_vtrip_sel[38] O
*I *874:gpio_vtrip_sel[38] O *D counter_gpio_config_example
*CAP
1 gpio_vtrip_sel[38] 0.00209492
2 *874:gpio_vtrip_sel[38] 0.00127979
3 *824:16 0.00779272
4 *824:10 0.0676838
5 *824:8 0.0632658
6 *824:8 *825:8 0.000220584
7 *824:8 *826:12 0.000131376
8 *824:8 *829:16 4.43752e-05
9 *824:10 *825:10 0
10 *824:16 *830:9 0.0128448
11 *122:193 *824:10 2.37229e-05
12 *476:11 *824:16 0
13 *705:39 *824:8 0.00209447
14 *740:16 *824:8 0.00346689
15 *779:16 *824:8 0.000297967
*RES
1 *874:gpio_vtrip_sel[38] *824:8 7.593 
2 *824:8 *824:10 150.599 
3 *824:10 *824:16 20.8195 
4 *824:16 gpio_vtrip_sel[38] 35.3325 
*END

*D_NET *825 0.201973
*CONN
*P gpio_vtrip_sel[39] O
*I *874:gpio_vtrip_sel[39] O *D counter_gpio_config_example
*CAP
1 gpio_vtrip_sel[39] 6.64613e-05
2 *874:gpio_vtrip_sel[39] 0.000582904
3 *825:18 0.00458207
4 *825:16 0.00451561
5 *825:14 0.0379711
6 *825:12 0.0379711
7 *825:10 0.0572053
8 *825:8 0.0577882
9 *825:8 *826:14 0.000526703
10 gpio_ib_mode_sel[39] *825:18 0
11 *205:17 *825:8 5.53713e-05
12 *429:13 *825:18 0
13 *696:14 *825:14 0
14 *705:39 *825:8 4.10074e-05
15 *740:16 *825:8 0.000446475
16 *824:8 *825:8 0.000220584
17 *824:10 *825:10 0
*RES
1 *874:gpio_vtrip_sel[39] *825:8 2.98993 
2 *825:8 *825:10 142.675 
3 *825:10 *825:12 0.5 
4 *825:12 *825:14 87.9333 
5 *825:14 *825:16 0.5 
6 *825:16 *825:18 79.815 
7 *825:18 gpio_vtrip_sel[39] 1.2225 
*END

*D_NET *826 0.330351
*CONN
*P gpio_vtrip_sel[3] O
*I *874:gpio_vtrip_sel[3] O *D counter_gpio_config_example
*CAP
1 gpio_vtrip_sel[3] 0.00122867
2 *874:gpio_vtrip_sel[3] 0.00350735
3 *826:22 0.124557
4 *826:20 0.123328
5 *826:18 0.00514123
6 *826:16 0.00514123
7 *826:14 0.00812665
8 *826:12 0.011634
9 gpio_vtrip_sel[3] *833:13 0
10 gpio_ib_mode_sel[3] gpio_vtrip_sel[3] 0.00163962
11 gpio_ib_mode_sel[3] *826:22 0
12 gpio_oeb[3] *826:22 0.000578019
13 *874:gpio_in[38] *826:14 0.00109786
14 *205:17 *826:12 0.00173489
15 *230:9 *826:22 0
16 *281:13 *826:18 0
17 *286:15 *826:18 0.00110785
18 *398:11 *826:22 0.00110581
19 *410:19 *826:14 0.00256335
20 *430:19 *826:22 0
21 *444:11 *826:18 0.012592
22 *694:17 *826:22 0
23 *703:173 *826:14 0.000130473
24 *705:39 *826:12 0.000538328
25 *740:16 *826:12 0.00250876
26 *740:16 *826:14 0.000514022
27 *740:18 *826:14 0.0177362
28 *823:6 *826:12 0.00318184
29 *824:8 *826:12 0.000131376
30 *825:8 *826:14 0.000526703
*RES
1 *874:gpio_vtrip_sel[3] *826:12 16.8542 
2 *826:12 *826:14 198.135 
3 *826:14 *826:16 2 
4 *826:16 *826:18 143.033 
5 *826:18 *826:20 0.5 
6 *826:20 *826:22 291.371 
7 *826:22 gpio_vtrip_sel[3] 7.87603 
*END

*D_NET *827 0.178103
*CONN
*P gpio_vtrip_sel[40] O
*I *874:gpio_vtrip_sel[40] O *D counter_gpio_config_example
*CAP
1 gpio_vtrip_sel[40] 0.000266253
2 *874:gpio_vtrip_sel[40] 0.000608339
3 *827:13 0.00973663
4 *827:11 0.00947038
5 *827:9 0.02539
6 *827:7 0.0259984
7 gpio_out[40] *827:13 0
8 *155:21 *827:9 0.0384941
9 *212:13 gpio_vtrip_sel[40] 0.000235184
10 *462:19 *827:9 0.0124375
11 *529:13 *827:9 0.0331492
12 *674:11 *827:9 0.0223167
13 *692:7 *827:7 0
*RES
1 *874:gpio_vtrip_sel[40] *827:7 9.2225 
2 *827:7 *827:9 128.866 
3 *827:9 *827:11 0.5 
4 *827:11 *827:13 168.045 
5 *827:13 gpio_vtrip_sel[40] 4.8975 
*END

*D_NET *828 0.267874
*CONN
*P gpio_vtrip_sel[41] O
*I *874:gpio_vtrip_sel[41] O *D counter_gpio_config_example
*CAP
1 gpio_vtrip_sel[41] 0.000314893
2 *874:gpio_vtrip_sel[41] 0.00966786
3 *828:13 0.0569626
4 *828:11 0.0573473
5 *828:5 0.0103674
6 *828:13 *873:13 0.00537371
7 gpio_dm0[41] *828:13 0.000369446
8 gpio_dm0[42] *828:13 0.00280591
9 *300:21 *828:13 0.00406889
10 *340:17 *828:11 0.000424288
11 *340:17 *828:13 0.00468761
12 *344:35 *828:13 0.0035646
13 *345:17 gpio_vtrip_sel[41] 4.55864e-06
14 *432:23 gpio_vtrip_sel[41] 0
15 *433:22 *828:11 0.000247981
16 *433:22 *828:13 0.0237693
17 *478:9 *828:13 0
18 *739:9 *828:13 0.0878977
19 *798:11 *828:5 0
*RES
1 *874:gpio_vtrip_sel[41] *828:5 171.923 
2 *828:5 *828:11 2.43927 
3 *828:11 *828:13 184.831 
4 *828:13 gpio_vtrip_sel[41] 6.1625 
*END

*D_NET *829 0.408269
*CONN
*P gpio_vtrip_sel[42] O
*I *874:gpio_vtrip_sel[42] O *D counter_gpio_config_example
*CAP
1 gpio_vtrip_sel[42] 0.000180668
2 *874:gpio_vtrip_sel[42] 0.113476
3 *829:18 0.0685942
4 *829:16 0.181889
5 gpio_ib_mode_sel[42] gpio_vtrip_sel[42] 1.02439e-05
6 *104:27 *829:16 0.00295375
7 *117:17 *829:16 0.00103151
8 *215:33 *829:16 7.84191e-05
9 *293:17 *829:16 0.0014001
10 *337:17 *829:16 0.00137446
11 *338:17 *829:16 0.00134416
12 *381:17 *829:16 0.000357098
13 *427:17 *829:16 0.00113547
14 *557:17 *829:16 0.00137446
15 *705:39 *829:16 0.00903756
16 *742:9 *829:16 0.0111708
17 *743:17 *829:16 0.00592957
18 *779:16 *829:16 0.00267431
19 *781:17 *829:16 0.00127274
20 *783:13 *829:16 0.00273856
21 *787:11 *829:16 0.000201441
22 *824:8 *829:16 4.43752e-05
*RES
1 *874:gpio_vtrip_sel[42] *829:16 22.9801 
2 *829:16 *829:18 157.317 
3 *829:18 gpio_vtrip_sel[42] 2.03297 
*END

*D_NET *830 0.25496
*CONN
*P gpio_vtrip_sel[43] O
*I *874:gpio_vtrip_sel[43] O *D counter_gpio_config_example
*CAP
1 gpio_vtrip_sel[43] 0.00123567
2 *874:gpio_vtrip_sel[43] 0.00846378
3 *830:9 0.0942187
4 *830:7 0.0929831
5 *830:5 0.00846378
6 *121:17 *830:9 0.0338614
7 *434:21 gpio_vtrip_sel[43] 0.0028892
8 *476:11 *830:9 0
9 *690:11 *830:5 0
10 *784:34 *830:9 0
11 *813:7 *830:5 0
12 *824:16 *830:9 0.0128448
*RES
1 *874:gpio_vtrip_sel[43] *830:5 143.363 
2 *830:5 *830:7 0.5 
3 *830:7 *830:9 238.698 
4 *830:9 gpio_vtrip_sel[43] 33.8525 
*END

*D_NET *831 0.639671
*CONN
*P gpio_vtrip_sel[4] O
*I *874:gpio_vtrip_sel[4] O *D counter_gpio_config_example
*CAP
1 gpio_vtrip_sel[4] 0.0035398
2 *874:gpio_vtrip_sel[4] 0.00113228
3 *831:13 0.0486391
4 *831:11 0.0450993
5 *831:9 0.0538456
6 *831:7 0.0549779
7 *699:9 gpio_vtrip_sel[4] 0
8 *711:19 *831:9 0.0384235
9 *714:19 *831:9 0.0004203
10 *743:17 gpio_vtrip_sel[4] 0.00190778
11 *744:7 *831:7 0
12 *744:9 *831:9 0.222143
13 *756:9 *831:9 0.169543
14 *794:7 *831:7 0
*RES
1 *874:gpio_vtrip_sel[4] *831:7 17.8925 
2 *831:7 *831:9 334.838 
3 *831:9 *831:11 0.5 
4 *831:11 *831:13 782.955 
5 *831:13 gpio_vtrip_sel[4] 9.31283 
*END

*D_NET *832 0.485156
*CONN
*P gpio_vtrip_sel[5] O
*I *874:gpio_vtrip_sel[5] O *D counter_gpio_config_example
*CAP
1 gpio_vtrip_sel[5] 0.00158404
2 *874:gpio_vtrip_sel[5] 0.000968409
3 *832:13 0.0563491
4 *832:11 0.0547651
5 *832:9 0.0736688
6 *832:7 0.0746372
7 *832:9 *833:9 0.0911386
8 gpio_ib_mode_sel[5] gpio_vtrip_sel[5] 0.00129584
9 *208:38 *832:9 0.00101991
10 *389:13 *832:9 0
11 *529:13 *832:9 0
12 *564:10 *832:9 0.052847
13 *701:9 *832:9 0
14 *702:9 *832:9 0.0313409
15 *713:15 *832:9 0.029221
16 *714:19 *832:9 0.0163199
17 *741:5 *832:7 0
18 *785:5 *832:7 0
*RES
1 *874:gpio_vtrip_sel[5] *832:7 15.3425 
2 *832:7 *832:9 348.181 
3 *832:9 *832:11 0.5 
4 *832:11 *832:13 951.765 
5 *832:13 gpio_vtrip_sel[5] 4.50203 
*END

*D_NET *833 0.604612
*CONN
*P gpio_vtrip_sel[6] O
*I *874:gpio_vtrip_sel[6] O *D counter_gpio_config_example
*CAP
1 gpio_vtrip_sel[6] 0.000887708
2 *874:gpio_vtrip_sel[6] 0.00105182
3 *833:13 0.0655337
4 *833:11 0.064646
5 *833:9 0.0596468
6 *833:7 0.0606986
7 gpio_analog_en[4] *833:13 0
8 gpio_dm0[1] *833:13 0
9 gpio_dm0[2] *833:13 0
10 gpio_dm0[3] *833:13 0
11 gpio_dm0[4] *833:13 0
12 gpio_dm0[5] *833:13 0
13 gpio_dm2[2] *833:13 0
14 gpio_ib_mode_sel[6] gpio_vtrip_sel[6] 0.000705564
15 gpio_out[2] *833:13 0
16 gpio_out[3] *833:13 0
17 gpio_vtrip_sel[3] *833:13 0
18 *208:38 *833:9 0.00188512
19 *389:13 *833:9 0.00033093
20 *529:17 *833:13 0
21 *711:19 *833:9 0.0326265
22 *714:19 *833:9 0.000504228
23 *744:9 *833:9 0.224718
24 *756:9 *833:9 0.000238647
25 *820:7 *833:7 0
26 *832:9 *833:9 0.0911386
*RES
1 *874:gpio_vtrip_sel[6] *833:7 16.8725 
2 *833:7 *833:9 344.219 
3 *833:9 *833:11 0.5 
4 *833:11 *833:13 1123.12 
5 *833:13 gpio_vtrip_sel[6] 2.6983 
*END

*D_NET *834 0.450805
*CONN
*P gpio_vtrip_sel[7] O
*I *874:gpio_vtrip_sel[7] O *D counter_gpio_config_example
*CAP
1 gpio_vtrip_sel[7] 0.00992954
2 *874:gpio_vtrip_sel[7] 0.0236951
3 *834:13 0.043627
4 *834:11 0.0336974
5 *834:9 0.122277
6 *834:7 0.122277
7 *834:5 0.0236951
8 gpio_ib_mode_sel[7] gpio_vtrip_sel[7] 0.000267643
9 gpio_oeb[7] gpio_vtrip_sel[7] 0
10 *422:17 *834:9 0.0249087
11 *438:13 gpio_vtrip_sel[7] 0.0182871
12 *667:13 *834:13 0
13 *711:21 *834:13 0.0281438
14 *719:5 *834:5 0
15 *722:5 *834:5 0
*RES
1 *874:gpio_vtrip_sel[7] *834:5 406.522 
2 *834:5 *834:7 0.5 
3 *834:7 *834:9 305.588 
4 *834:9 *834:11 0.5 
5 *834:11 *834:13 614.145 
6 *834:13 gpio_vtrip_sel[7] 31.7936 
*END

*D_NET *835 0.577329
*CONN
*P gpio_vtrip_sel[8] O
*I *874:gpio_vtrip_sel[8] O *D counter_gpio_config_example
*CAP
1 gpio_vtrip_sel[8] 0.00234145
2 *874:gpio_vtrip_sel[8] 0.000103254
3 *835:21 0.0258802
4 *835:19 0.0235388
5 *835:17 0.141408
6 *835:15 0.141408
7 *835:13 0.0883724
8 *835:11 0.0884756
9 gpio_holdover[22] *835:13 0.00445336
10 gpio_ib_mode_sel[8] gpio_vtrip_sel[8] 0.000858335
11 gpio_oeb[8] gpio_vtrip_sel[8] 0
12 *439:13 gpio_vtrip_sel[8] 0.00243235
13 *483:11 *835:21 0.0553845
14 *484:11 *835:21 0.00264928
15 *690:13 *835:11 2.46013e-05
16 *696:10 *835:13 0
17 *744:7 *835:11 0
18 *799:9 *835:17 0
19 *807:13 *835:13 0
*RES
1 *874:gpio_vtrip_sel[8] *835:11 2.13963 
2 *835:11 *835:13 213.735 
3 *835:13 *835:15 0.5 
4 *835:15 *835:17 337.489 
5 *835:17 *835:19 0.5 
6 *835:19 *835:21 676.365 
7 *835:21 gpio_vtrip_sel[8] 6.9771 
*END

*D_NET *836 0.598879
*CONN
*P gpio_vtrip_sel[9] O
*I *874:gpio_vtrip_sel[9] O *D counter_gpio_config_example
*CAP
1 gpio_vtrip_sel[9] 0.000233821
2 *874:gpio_vtrip_sel[9] 0.000503751
3 *836:17 0.139357
4 *836:15 0.139123
5 *836:13 0.129122
6 *836:11 0.129626
7 gpio_holdover[9] *836:17 0
8 *440:13 *836:17 0
9 *683:11 *836:11 0.000422585
10 *702:7 *836:11 0
11 *725:13 *836:13 0.031897
12 *748:17 *836:17 0
13 *767:5 *836:13 0.028593
*RES
1 *874:gpio_vtrip_sel[9] *836:11 3.30497 
2 *836:11 *836:13 355.855 
3 *836:13 *836:15 0.5 
4 *836:15 *836:17 325.554 
5 *836:17 gpio_vtrip_sel[9] 0.671967 
*END

*D_NET *873 0.0316549
*CONN
*P resetb_l I
*I *874:resetb_l I *D counter_gpio_config_example
*CAP
1 resetb_l 0.00283769
2 *874:resetb_l 0.00971139
3 *873:13 0.0125491
4 *433:22 *873:13 0.00118301
5 *728:11 *874:resetb_l 0
6 *828:13 *873:13 0.00537371
*RES
1 resetb_l *873:13 15.3269 
2 *873:13 *874:resetb_l 171.923 
*END
